MA-Pb-I                                 
   1.00000000000000     
     5.8892445321787328   -0.0048008041779134    0.0656571269169357
    -0.0053334077729528    5.8544884580747532    0.0012821621476484
     0.0639774282558244    0.0006908469467942    6.0230320529523143
   C    N    H    Pb   Br
     1     1     6     1     3
Direct
  0.5819011006210941  0.1583812949519361  0.5516130771510127
 -0.0300085014348804  0.1828766619683460  0.0573182772212038
  0.7228387191925539  0.0966715628629021  0.6604230933546136
  0.8269314919120071  0.1134602031994763  0.1267235542080105
 -0.1094260482326534  0.8245520538697378  0.5620132571702630
  0.5845235015118353  0.1043971354156904  0.3736429901101892
  0.1052381522907369  0.1356066474202999  0.1560959910528737
  0.9547620311704395  0.3565198611265842  0.0712761277832724
  0.5514074701087224  0.5721652814486384  0.5709075726484067
  0.5518382649607634  0.5802946304185548  0.0776430917710491
  0.2888884163863563  0.1135201721987883  0.6965750330544014
  0.0335526874320675  0.6089473860928594  0.5914769225286460
 
  0.00000000E+00  0.00000000E+00  0.00000000E+00
  0.00000000E+00  0.00000000E+00  0.00000000E+00
  0.00000000E+00  0.00000000E+00  0.00000000E+00
  0.00000000E+00  0.00000000E+00  0.00000000E+00
  0.00000000E+00  0.00000000E+00  0.00000000E+00
  0.00000000E+00  0.00000000E+00  0.00000000E+00
  0.00000000E+00  0.00000000E+00  0.00000000E+00
  0.00000000E+00  0.00000000E+00  0.00000000E+00
  0.00000000E+00  0.00000000E+00  0.00000000E+00
  0.00000000E+00  0.00000000E+00  0.00000000E+00
  0.00000000E+00  0.00000000E+00  0.00000000E+00
  0.00000000E+00  0.00000000E+00  0.00000000E+00
