MA-Pb-I                                 
   1.00000000000000     
     5.8892445321787328   -0.0048008041779134    0.0656571269169357
    -0.0053334077729528    5.8544884580747532    0.0012821621476484
     0.0639774282558244    0.0006908469467942    6.0230320529523143
   C    N    H    Pb   Br
     1     1     6     1     3
Direct
  0.4153558356807292  0.2686259145474879  0.4810067814602394 
  0.0380879951681292  0.3391315167983390  0.0802643506288206 
  0.5789340884604999  0.1979591462480177  0.5219337622542162 
  0.8689401028574951  0.2890497202107460  0.1529831080676294 
  0.1591116114032944  0.6921809910253872  0.6718057171585328 
  0.7422375636665706  0.8832856301345819  0.7484875331647425 
  0.0410927493383006  0.2969739785391353  0.2536935705548740 
  0.8854862506279788  0.4152054037111061  0.0513533881982629 
  0.5220881879331738  0.4696365806165066  0.5908685686464177 
  0.4352272726238539  0.4972012503325617  0.9832769846011953
  0.4159970891092727  0.9985715009710078  0.5336351900357424
  0.9598885390497535  0.4995712578389358  0.4264000332832606
 
  0.00000000E+00  0.00000000E+00  0.00000000E+00
  0.00000000E+00  0.00000000E+00  0.00000000E+00
  0.00000000E+00  0.00000000E+00  0.00000000E+00
  0.00000000E+00  0.00000000E+00  0.00000000E+00
  0.00000000E+00  0.00000000E+00  0.00000000E+00
  0.00000000E+00  0.00000000E+00  0.00000000E+00
  0.00000000E+00  0.00000000E+00  0.00000000E+00
  0.00000000E+00  0.00000000E+00  0.00000000E+00
  0.00000000E+00  0.00000000E+00  0.00000000E+00
  0.00000000E+00  0.00000000E+00  0.00000000E+00
  0.00000000E+00  0.00000000E+00  0.00000000E+00
  0.00000000E+00  0.00000000E+00  0.00000000E+00
