MA-Pb-I                                 
   1.00000000000000     
     5.8892445321787328   -0.0048008041779134    0.0656571269169357
    -0.0053334077729528    5.8544884580747532    0.0012821621476484
     0.0639774282558244    0.0006908469467942    6.0230320529523143
   C    N    H    Pb   Br
     1     1     6     1     3
Direct
  0.4854068164529561  0.8736534295441665  0.6553426099959682
  0.9028909702609078  0.1378441451733803  0.7509572429509285
  0.3056781261608839  0.8827292686784453  0.7146458084499989
 -0.0636005215396259  0.1595754999382617  0.9158100318097344
  0.0404684501041073  0.6988726018997031  0.3895742138382740
  0.4355135478549469  0.1573462658187921  0.1818552057171121
  0.7462263165623853  0.0486526403936614  0.7329586113125431
  0.0332127861953263  0.0386462908088040  0.6856743590560804
  0.4820730004909434  0.4492561331231245  0.5762102226340383
  0.4745638742591424  0.4135696732620412  0.0350415508749157
  0.4146399198459309  0.9118522733286039  0.3201314865691948
 -0.0153576804053115  0.4927785793847151  0.5306487328169447
 
  0.00000000E+00  0.00000000E+00  0.00000000E+00
  0.00000000E+00  0.00000000E+00  0.00000000E+00
  0.00000000E+00  0.00000000E+00  0.00000000E+00
  0.00000000E+00  0.00000000E+00  0.00000000E+00
  0.00000000E+00  0.00000000E+00  0.00000000E+00
  0.00000000E+00  0.00000000E+00  0.00000000E+00
  0.00000000E+00  0.00000000E+00  0.00000000E+00
  0.00000000E+00  0.00000000E+00  0.00000000E+00
  0.00000000E+00  0.00000000E+00  0.00000000E+00
  0.00000000E+00  0.00000000E+00  0.00000000E+00
  0.00000000E+00  0.00000000E+00  0.00000000E+00
  0.00000000E+00  0.00000000E+00  0.00000000E+00
