MA-Pb-I                                 
   1.00000000000000     
     5.8892445321787328   -0.0048008041779134    0.0656571269169357
    -0.0053334077729528    5.8544884580747532    0.0012821621476484
     0.0639774282558244    0.0006908469467942    6.0230320529523143
   C    N    H    Pb   Br
     1     1     6     1     3
Direct
  0.5734126005567458  0.6645725860821214  0.6819168440626977 
  0.7211308232293145  0.0746910778147361  0.7875080086461484 
  0.4599468712647920  0.7296915836323435  0.8096341064651755 
  0.0239257742971699  0.2415239644996151  0.7477284986277148 
  0.1151211700903227  0.8798154798847729  0.4977018029012247 
  0.5044374789913155  0.2942263657380300  0.0803629209360701 
  0.5981305362921596  0.9506485663608963  0.8242281076310423 
  0.8175320203453171  0.0109803866383889  0.6588296131020295 
  0.6169654303925733  0.4232827815602862  0.4576279657334265 
  0.4352272726238539  0.4972012503325617  0.9832769846011953
  0.4159970891092727  0.9985715009710078  0.5336351900357424
  0.9598885390497535  0.4995712578389358  0.4264000332832606
 
  0.00000000E+00  0.00000000E+00  0.00000000E+00
  0.00000000E+00  0.00000000E+00  0.00000000E+00
  0.00000000E+00  0.00000000E+00  0.00000000E+00
  0.00000000E+00  0.00000000E+00  0.00000000E+00
  0.00000000E+00  0.00000000E+00  0.00000000E+00
  0.00000000E+00  0.00000000E+00  0.00000000E+00
  0.00000000E+00  0.00000000E+00  0.00000000E+00
  0.00000000E+00  0.00000000E+00  0.00000000E+00
  0.00000000E+00  0.00000000E+00  0.00000000E+00
  0.00000000E+00  0.00000000E+00  0.00000000E+00
  0.00000000E+00  0.00000000E+00  0.00000000E+00
  0.00000000E+00  0.00000000E+00  0.00000000E+00
