MA-Pb-I                                 
   1.00000000000000     
     6.2884187138843197    0.0009579558247489    0.0690993966769832
     0.0005978161223733    6.2287690412624563   -0.0003732067435118
     0.0697053521696059    0.0000445224912706    6.3737103126460282
   C    N    H    Pb   I 
     1     1     6     1     3
Direct
  0.4877049261674914  0.5039218958762360  0.5279558291680441
  0.2599753845508267  0.4499012887092456  0.5151427231790382
  0.5104858224345465  0.6534617079981997  0.6206005245257495
  0.5537246169969889  0.5321238753529857  0.3657293347580668
  0.5834385942569822  0.3639672573982188  0.5879618200704502
  0.1785861943230064  0.5657623423015746  0.4319764975780499
  0.1882437566489321  0.4337812000174740  0.6674192657561758
  0.2299514379040484  0.3013498099687102  0.4415843506325947
  0.5900652578641951  0.3019282699551015  0.0145129340546617
  0.8350208573558665  0.0704853697814219  0.4943095105899901
  0.0748077271173643  0.3226647156887928  0.0049646673670375
  0.5601479573804021  0.8139080364742819  0.0245444283434737
 
  0.00000000E+00  0.00000000E+00  0.00000000E+00
  0.00000000E+00  0.00000000E+00  0.00000000E+00
  0.00000000E+00  0.00000000E+00  0.00000000E+00
  0.00000000E+00  0.00000000E+00  0.00000000E+00
  0.00000000E+00  0.00000000E+00  0.00000000E+00
  0.00000000E+00  0.00000000E+00  0.00000000E+00
  0.00000000E+00  0.00000000E+00  0.00000000E+00
  0.00000000E+00  0.00000000E+00  0.00000000E+00
  0.00000000E+00  0.00000000E+00  0.00000000E+00
  0.00000000E+00  0.00000000E+00  0.00000000E+00
  0.00000000E+00  0.00000000E+00  0.00000000E+00
  0.00000000E+00  0.00000000E+00  0.00000000E+00
