MA-Pb-I                                 
   1.00000000000000     
     5.8857348584972646   -0.0000116429338373    0.0677019167604032
    -0.0000113721705701    5.8535748976198549   -0.0000048572736550
     0.0678468051824150   -0.0000044748208102    6.0066012361495211
   C    N    H    Pb   Br
     1     1     6     1     3
Direct
  0.0594003742024688  0.9068123104175684  0.6023359696791222
  0.8503497509207141  0.3603542119163695  0.7467118646460499
 -0.0425870197673620  0.0475820830280511  0.5237125748345460
 -0.0641674793514149  0.1446492283781797  0.2322728668929829
  0.0155299574521125  0.3191190447985500  0.7037698288834828
  0.8228297019938126  0.2070314134015808  0.2101327316444331
  0.8595061375210419  0.5099932275114759  0.8377234274650445
  0.7939510558670875  0.2378365126738743  0.8566758000008216
  0.4680618999703013  0.5599290182124088  0.4903263240363736
  0.4508656614164873  0.5644808777726237  0.0001491711710069
  0.4043470942946002  0.0541990386799738  0.5017061966219741
 -0.0118580821763355  0.6619069649568149  0.3740459904806989
 
  0.00000000E+00  0.00000000E+00  0.00000000E+00
  0.00000000E+00  0.00000000E+00  0.00000000E+00
  0.00000000E+00  0.00000000E+00  0.00000000E+00
  0.00000000E+00  0.00000000E+00  0.00000000E+00
  0.00000000E+00  0.00000000E+00  0.00000000E+00
  0.00000000E+00  0.00000000E+00  0.00000000E+00
  0.00000000E+00  0.00000000E+00  0.00000000E+00
  0.00000000E+00  0.00000000E+00  0.00000000E+00
  0.00000000E+00  0.00000000E+00  0.00000000E+00
  0.00000000E+00  0.00000000E+00  0.00000000E+00
  0.00000000E+00  0.00000000E+00  0.00000000E+00
  0.00000000E+00  0.00000000E+00  0.00000000E+00
