MA-Pb-I                                 
   1.0000000000000000     
     5.8857348584972646   -0.0000116429338373    0.0677019167604032
    -0.0000113721705701    5.8535748976198549   -0.0000048572736550
     0.0678468051824150   -0.0000044748208102    6.0066012361495211
   C    N    H    Pb   Br
     1     1     6     1     3
Direct
  0.1848521094960250  0.8593715485128876  0.5859839205265309 
  0.7163951829799236  0.4465557625582087  0.6977260098392439 
  0.1280560259956769  0.9636121635640706  0.4463712499320399 
  0.1088739213961192  0.0976759403114191  0.3175759635965966 
  0.0610388966257208  0.5356702580754145  0.9174423811441175 
  0.6743945170298772  0.1631423913065926  0.1746243871356098 
  0.6252302781136111  0.5855317831573386  0.7633788371551795 
  0.7573155897888622  0.3465340758780859  0.8333112316597040 
  0.5329069982319782  0.5759741292440562  0.4020335638446331 
  0.4343825501137815  0.4999407920523851  0.9818407606070920
  0.4217797225331665  0.9999416700962840  0.5296464633737443
  0.9610032600387797  0.4999434169907246  0.4296279775420402

  0.00000000E+00  0.00000000E+00  0.00000000E+00
  0.00000000E+00  0.00000000E+00  0.00000000E+00
  0.00000000E+00  0.00000000E+00  0.00000000E+00
  0.00000000E+00  0.00000000E+00  0.00000000E+00
  0.00000000E+00  0.00000000E+00  0.00000000E+00
  0.00000000E+00  0.00000000E+00  0.00000000E+00
  0.00000000E+00  0.00000000E+00  0.00000000E+00
  0.00000000E+00  0.00000000E+00  0.00000000E+00
  0.00000000E+00  0.00000000E+00  0.00000000E+00
  0.00000000E+00  0.00000000E+00  0.00000000E+00
  0.00000000E+00  0.00000000E+00  0.00000000E+00
  0.00000000E+00  0.00000000E+00  0.00000000E+00
