MA-Pb-I                                 
   1.00000000000000     
     5.8892445321787328   -0.0048008041779134    0.0656571269169357
    -0.0053334077729528    5.8544884580747532    0.0012821621476484
     0.0639774282558244    0.0006908469467942    6.0230320529523143
   C    N    H    Pb   Br
     1     1     6     1     3
Direct
  0.1250050412571047  0.2293765315168792  0.2941954393013271
  0.1930766094831202  0.0590557074203655  0.1176589274438844
  0.0297936696339899  0.1340991909735444  0.4266914537571423
  0.3241187545457357 -0.0433356852308893  0.1740015412809513
  0.0098991466911840  0.3445596721565878  0.2067399662495937
  0.8086732309797456  0.8447767171563875  0.5106604211678933
  0.0616360370244701 -0.0450345788084300  0.0700120644887577
  0.2587071035771174  0.1528708073470757 -0.0173241077823503
  0.4606551773191295  0.4737290625181294  0.4251995982582412
  0.4694341935022869  0.4886852836680231  0.9269532468793801
  0.5553779843263453 -0.0024559931965125  0.4698568569083039
 -0.0175997886123546  0.6289030372817345  0.5178100368501114
 
  0.00000000E+00  0.00000000E+00  0.00000000E+00
  0.00000000E+00  0.00000000E+00  0.00000000E+00
  0.00000000E+00  0.00000000E+00  0.00000000E+00
  0.00000000E+00  0.00000000E+00  0.00000000E+00
  0.00000000E+00  0.00000000E+00  0.00000000E+00
  0.00000000E+00  0.00000000E+00  0.00000000E+00
  0.00000000E+00  0.00000000E+00  0.00000000E+00
  0.00000000E+00  0.00000000E+00  0.00000000E+00
  0.00000000E+00  0.00000000E+00  0.00000000E+00
  0.00000000E+00  0.00000000E+00  0.00000000E+00
  0.00000000E+00  0.00000000E+00  0.00000000E+00
  0.00000000E+00  0.00000000E+00  0.00000000E+00
