MA-Pb-I                                 
   1.00000000000000     
     5.8857348584972646   -0.0000116429338373    0.0677019167604032
    -0.0000113721705701    5.8535748976198549   -0.0000048572736550
     0.0678468051824150   -0.0000044748208102    6.0066012361495211
   C    N    H    Pb   Br
     1     1     6     1     3
Direct
  0.2743435441502697  0.0787618853613681 -0.0230491413508497
  0.0822403125364857  0.0534445226605869  0.0830525689119287
  0.4164068737704050 -0.0160111998034476  0.0622873873124997
  0.9925821125965991  0.5634694474840229 -0.0763867115460707
 -0.0286082028675242  0.5632200052607178  0.7879219082954000
  0.2694399986424833  0.1329221364899136  0.8117562833741124
  0.0728102899919243 -0.0055097002868855  0.2464176416447770
 -0.0639360787428812  0.1260188375251030  0.0195694223213674
  0.5062158433961441  0.4477419379236067  0.4835447277035471
  0.4866632876865052  0.4696377374462585  0.0057346493481375
  0.5210289163203222  0.9394343633958259  0.4903414271096805
  0.0082512846648246  0.4648246706504671  0.4330095860143610
 
  0.00000000E+00  0.00000000E+00  0.00000000E+00
  0.00000000E+00  0.00000000E+00  0.00000000E+00
  0.00000000E+00  0.00000000E+00  0.00000000E+00
  0.00000000E+00  0.00000000E+00  0.00000000E+00
  0.00000000E+00  0.00000000E+00  0.00000000E+00
  0.00000000E+00  0.00000000E+00  0.00000000E+00
  0.00000000E+00  0.00000000E+00  0.00000000E+00
  0.00000000E+00  0.00000000E+00  0.00000000E+00
  0.00000000E+00  0.00000000E+00  0.00000000E+00
  0.00000000E+00  0.00000000E+00  0.00000000E+00
  0.00000000E+00  0.00000000E+00  0.00000000E+00
  0.00000000E+00  0.00000000E+00  0.00000000E+00
