MA-Pb-I                                 
   1.0000000000000000     
     5.8857348584972646   -0.0000116429338373    0.0677019167604032
    -0.0000113721705701    5.8535748976198549   -0.0000048572736550
     0.0678468051824150   -0.0000044748208102    6.0066012361495211
   C    N    H    Pb   Br
     1     1     6     1     3
Direct
  0.3890377397497480  0.0541098083345792  0.9718481226570237 
  0.9892458247377853  0.0370084850401456  0.1187515227503493 
  0.5476515800708273  0.0066323378226845  0.0504047148065350 
  0.7682855461762906  0.5257640287642710  0.0619101033208187 
  0.0970342476583668  0.6332766612790601  0.4630689011727156 
  0.6460717041461208  0.9730415494724108  0.9066806241416729 
  0.9839505324156579  0.0835396278869849  0.2912116066539003 
  0.8417281082886244  0.0945177602981218  0.0480876955912126 
  0.4572673662164067  0.4102385060698729  0.4711212565217813 
  0.4343825501137815  0.4999407920523851  0.9818407606070920
  0.4217797225331665  0.9999416700962840  0.5296464633737443
  0.9610032600387797  0.4999434169907246  0.4296279775420402

  0.00000000E+00  0.00000000E+00  0.00000000E+00
  0.00000000E+00  0.00000000E+00  0.00000000E+00
  0.00000000E+00  0.00000000E+00  0.00000000E+00
  0.00000000E+00  0.00000000E+00  0.00000000E+00
  0.00000000E+00  0.00000000E+00  0.00000000E+00
  0.00000000E+00  0.00000000E+00  0.00000000E+00
  0.00000000E+00  0.00000000E+00  0.00000000E+00
  0.00000000E+00  0.00000000E+00  0.00000000E+00
  0.00000000E+00  0.00000000E+00  0.00000000E+00
  0.00000000E+00  0.00000000E+00  0.00000000E+00
  0.00000000E+00  0.00000000E+00  0.00000000E+00
  0.00000000E+00  0.00000000E+00  0.00000000E+00
