MA-Pb-I                                 
   1.00000000000000     
     5.8892445321787328   -0.0048008041779134    0.0656571269169357
    -0.0053334077729528    5.8544884580747532    0.0012821621476484
     0.0639774282558244    0.0006908469467942    6.0230320529523143
   C    N    H    Pb   Br
     1     1     6     1     3
Direct
  0.1853312211364194  0.2091886552251754  0.9199410191807542 
  0.5485800048892868  0.8909482011755714  0.0058153251130444 
  0.3342084323824801  0.1251079976468397  0.9846918776621256 
  0.2645410310402712  0.5386743063837652  0.5061199878841627 
  0.9472780048787225  0.9286315809076031  0.4323768341213195 
  0.0186847104365746  0.6121013866518297  0.0338299781736227 
  0.6929921462305180  0.9847507743721799  0.9588026502391984 
  0.4133546507779864  0.9696883774853051  0.9321643869278426 
  0.5849776570408355  0.4863922325013961  0.5720807787804263 
  0.4352272726238539  0.4972012503325617  0.9832769846011953
  0.4159970891092727  0.9985715009710078  0.5336351900357424
  0.9598885390497535  0.4995712578389358  0.4264000332832606
 
  0.00000000E+00  0.00000000E+00  0.00000000E+00
  0.00000000E+00  0.00000000E+00  0.00000000E+00
  0.00000000E+00  0.00000000E+00  0.00000000E+00
  0.00000000E+00  0.00000000E+00  0.00000000E+00
  0.00000000E+00  0.00000000E+00  0.00000000E+00
  0.00000000E+00  0.00000000E+00  0.00000000E+00
  0.00000000E+00  0.00000000E+00  0.00000000E+00
  0.00000000E+00  0.00000000E+00  0.00000000E+00
  0.00000000E+00  0.00000000E+00  0.00000000E+00
  0.00000000E+00  0.00000000E+00  0.00000000E+00
  0.00000000E+00  0.00000000E+00  0.00000000E+00
  0.00000000E+00  0.00000000E+00  0.00000000E+00
