MA-Pb-I                                 
   1.00000000000000     
     6.2884187138843197    0.0009579558247489    0.0690993966769832
     0.0005978161223733    6.2287690412624563   -0.0003732067435118
     0.0697053521696059    0.0000445224912706    6.3737103126460282
   C    N    H    Pb   I 
     1     1     6     1     3
Direct
  0.8492833398966408  0.1579175639284199  0.7092990157387862
  0.5279108639736663  0.3677995716148413  0.3306740552451350
  0.4423318133785273  0.5848241220731404  0.7831506952110958
  0.3655844198165300  0.4871853420512281  0.8055452871517970
  0.9300347325166513  0.7049209984150867 -0.0616386564187316
  0.5775061280632591  0.3907009402600812  0.4857955669954855
  0.6344661375537383  0.4376411410713357  0.2299749124651103
  0.3749838219577989  0.4268680805221775  0.3076436311392018
 -0.4806753797148764  0.9690593934302506  0.3141942965399421
  0.0139596540788425 -0.0842217086148908  0.3247991609680418
  0.9514311740581941  0.4022900284021971 -0.0647120059317369
  0.5144516841635788 -0.0008162456702416  0.8109846129018601
 
  0.00000000E+00  0.00000000E+00  0.00000000E+00
  0.00000000E+00  0.00000000E+00  0.00000000E+00
  0.00000000E+00  0.00000000E+00  0.00000000E+00
  0.00000000E+00  0.00000000E+00  0.00000000E+00
  0.00000000E+00  0.00000000E+00  0.00000000E+00
  0.00000000E+00  0.00000000E+00  0.00000000E+00
  0.00000000E+00  0.00000000E+00  0.00000000E+00
  0.00000000E+00  0.00000000E+00  0.00000000E+00
  0.00000000E+00  0.00000000E+00  0.00000000E+00
  0.00000000E+00  0.00000000E+00  0.00000000E+00
  0.00000000E+00  0.00000000E+00  0.00000000E+00
  0.00000000E+00  0.00000000E+00  0.00000000E+00
