MA-Pb-I                                 
   1.00000000000000     
     5.8857348584972646   -0.0000116429338373    0.0677019167604032
    -0.0000113721705701    5.8535748976198549   -0.0000048572736550
     0.0678468051824150   -0.0000044748208102    6.0066012361495211
   C    N    H    Pb   Br
     1     1     6     1     3
Direct
  0.0476719448227336  0.7197091005133832 -0.0038691121682933
  0.0716970854346554  0.8614842730971052  0.7896457079907048
  0.2185155407855215  0.9642499184407650  0.7813295714078278
  0.7031133306781390  0.2870048615753882  0.8568168262009549
  0.9284114530989929 -0.0276401296514574  0.7497536986155015
  0.0119373737941687  0.8377464756571972  0.1368371046510172
  0.0831448258187722  0.7511543269728911  0.6526384160399541
  0.8922185248357365  0.6224977676612107 -0.0291733705937370
  0.5074582165562810  0.3958312789232802  0.4199938148996835
  0.4775532488743464  0.4188035315197440  0.9166248758370129
  0.5217076225155022 -0.1040251598611488  0.4228854052227928
  0.0085561896386382  0.3825214916111711  0.4354965484343394
 
  0.00000000E+00  0.00000000E+00  0.00000000E+00
  0.00000000E+00  0.00000000E+00  0.00000000E+00
  0.00000000E+00  0.00000000E+00  0.00000000E+00
  0.00000000E+00  0.00000000E+00  0.00000000E+00
  0.00000000E+00  0.00000000E+00  0.00000000E+00
  0.00000000E+00  0.00000000E+00  0.00000000E+00
  0.00000000E+00  0.00000000E+00  0.00000000E+00
  0.00000000E+00  0.00000000E+00  0.00000000E+00
  0.00000000E+00  0.00000000E+00  0.00000000E+00
  0.00000000E+00  0.00000000E+00  0.00000000E+00
  0.00000000E+00  0.00000000E+00  0.00000000E+00
  0.00000000E+00  0.00000000E+00  0.00000000E+00
