MA-Pb-I                                 
   1.00000000000000     
     5.8892445321787328   -0.0048008041779134    0.0656571269169357
    -0.0053334077729528    5.8544884580747532    0.0012821621476484
     0.0639774282558244    0.0006908469467942    6.0230320529523143
   C    N    H    Pb   Br
     1     1     6     1     3
Direct
  0.8979970094875809  0.8211727888781999  0.0274857049525685 
  0.2488105580997002  0.9263462117324590  0.0376144121901717 
  0.9385253409749736  0.8381761741094084  0.8500174150560034 
  0.9230865041403088  0.0744826320112736  0.9985616463562037 
  0.9279978273946844  0.7623580384603116  0.0696201540025077 
  0.3423211183918766  0.0789784224706666  0.9148594663762160 
  0.3470048399635156  0.7861134533642686  0.9870512102192019 
  0.2238581393291407  0.9093667166574546  0.2079066492412819 
  0.5184060884529630  0.3827467798958389  0.4569256902718659 
  0.4352272726238539  0.4972012503325617  0.9832769846011953
  0.4159970891092727  0.9985715009710078  0.5336351900357424
  0.9598885390497535  0.4995712578389358  0.4264000332832606
 
  0.00000000E+00  0.00000000E+00  0.00000000E+00
  0.00000000E+00  0.00000000E+00  0.00000000E+00
  0.00000000E+00  0.00000000E+00  0.00000000E+00
  0.00000000E+00  0.00000000E+00  0.00000000E+00
  0.00000000E+00  0.00000000E+00  0.00000000E+00
  0.00000000E+00  0.00000000E+00  0.00000000E+00
  0.00000000E+00  0.00000000E+00  0.00000000E+00
  0.00000000E+00  0.00000000E+00  0.00000000E+00
  0.00000000E+00  0.00000000E+00  0.00000000E+00
  0.00000000E+00  0.00000000E+00  0.00000000E+00
  0.00000000E+00  0.00000000E+00  0.00000000E+00
  0.00000000E+00  0.00000000E+00  0.00000000E+00
