MA-Pb-I                                 
   1.0000000000000000     
     5.6267413476480952    0.0000416704727542    0.0620815770375229
    -0.0000317550626923    5.5940171136319288    0.0000254647194750
     0.0578866146782483   -0.0000342937909938    5.7648243532177101
   C    N    H    Pb   Cl
     1     1     6     1     3
Direct
  0.5060647077325772  0.6308786881975345  0.4360566886763311 
  0.4998934316399951  0.4165471480488814  0.5825187381884122 
  0.3757432197940489  0.7511247716036989  0.5067997085349704 
  0.4611020279171856  0.5849935270335126  0.2506001531520121 
  0.6844600694881244  0.7120998716261591  0.4460186980406715 
  0.3326910017169108  0.3332688863321428  0.5773668957293673 
  0.5424232410230150  0.4526232618854099  0.7608677890996671 
  0.6193942698671336  0.2935688644711844  0.5259237863831289 
  0.0344916116243021  0.1138478666434357  0.9944227535425787 
  0.9135858188955126  0.0000223702692494  0.4744099460480626
  0.9004629834686284  0.5000248740275239  0.0232973215355017
  0.4490472465535831  0.0000309138028598  0.9238306684389244

  0.00000000E+00  0.00000000E+00  0.00000000E+00
  0.00000000E+00  0.00000000E+00  0.00000000E+00
  0.00000000E+00  0.00000000E+00  0.00000000E+00
  0.00000000E+00  0.00000000E+00  0.00000000E+00
  0.00000000E+00  0.00000000E+00  0.00000000E+00
  0.00000000E+00  0.00000000E+00  0.00000000E+00
  0.00000000E+00  0.00000000E+00  0.00000000E+00
  0.00000000E+00  0.00000000E+00  0.00000000E+00
  0.00000000E+00  0.00000000E+00  0.00000000E+00
  0.00000000E+00  0.00000000E+00  0.00000000E+00
  0.00000000E+00  0.00000000E+00  0.00000000E+00
  0.00000000E+00  0.00000000E+00  0.00000000E+00
