MA-Pb-I                                 
   1.00000000000000     
     5.6267413476480952    0.0000416704727542    0.0620815770375229
    -0.0000317550626923    5.5940171136319288    0.0000254647194750
     0.0578866146782483   -0.0000342937909938    5.7648243532177101
   C    N    H    Pb   Cl
     1     1     6     1     3
Direct
  0.6027842440916494  0.6139379223345163  0.5190140796348102
  0.4447608059902932  0.4016157923867770  0.5070389686695479
  0.5821228141646622  0.7207183244392159  0.3600031540827943
  0.7890975948296957  0.5528010515144647  0.5320584620426292
  0.5526438734905792  0.7194241730760361  0.6739080292159557
  0.4781661486933256  0.2969883780121728  0.3574855799685667
  0.2650863419523917  0.4452455115973359  0.5024648736299632
  0.4629106154245484  0.2891539643352060  0.6519130152267518
 -0.0128641221047246 -0.9485006446075165  0.0159971972424259
  0.9836124364838444  0.0548006984753264  0.5168138718147210
 -0.0112123681842696  0.5493062445764223  0.0157639723966638
  0.4878322920450005  0.0588660733513685  0.0164883884173575
 
  0.00000000E+00  0.00000000E+00  0.00000000E+00
  0.00000000E+00  0.00000000E+00  0.00000000E+00
  0.00000000E+00  0.00000000E+00  0.00000000E+00
  0.00000000E+00  0.00000000E+00  0.00000000E+00
  0.00000000E+00  0.00000000E+00  0.00000000E+00
  0.00000000E+00  0.00000000E+00  0.00000000E+00
  0.00000000E+00  0.00000000E+00  0.00000000E+00
  0.00000000E+00  0.00000000E+00  0.00000000E+00
  0.00000000E+00  0.00000000E+00  0.00000000E+00
  0.00000000E+00  0.00000000E+00  0.00000000E+00
  0.00000000E+00  0.00000000E+00  0.00000000E+00
  0.00000000E+00  0.00000000E+00  0.00000000E+00
