MA-Pb-I                                 
   1.00000000000000     
     5.8857348584972646   -0.0000116429338373    0.0677019167604032
    -0.0000113721705701    5.8535748976198549   -0.0000048572736550
     0.0678468051824150   -0.0000044748208102    6.0066012361495211
   C    N    H    Pb   Br
     1     1     6     1     3
Direct
  0.6828755417744777  0.8462664259998540  0.8096642100712189
  0.8983799698223108  0.8644142954427524  0.7684757197434523
  0.6458718092592873  0.8574379659705508  0.9881266230188005
  0.3455780510613170  0.8265790503800553  0.1975318848208248
 -0.0385451087993666  0.3300264861108356 -0.0273836478052265
  0.0959182914073454  0.3314080361941028 -0.0408857090838263
  0.0165941156712920  0.8865022362526649  0.8939553644765518
 -0.0278274077987115  0.8636558521815050  0.6118905545712658
  0.5090765736502784  0.3279640542073737  0.4397798180730282
  0.5225342643141820  0.3371200897810404  0.9366793310769744
  0.4661499888783475 -0.1720135842702156  0.4248483638698490
  0.0117800386737427  0.3253662270758967  0.4540494989373853
 
  0.00000000E+00  0.00000000E+00  0.00000000E+00
  0.00000000E+00  0.00000000E+00  0.00000000E+00
  0.00000000E+00  0.00000000E+00  0.00000000E+00
  0.00000000E+00  0.00000000E+00  0.00000000E+00
  0.00000000E+00  0.00000000E+00  0.00000000E+00
  0.00000000E+00  0.00000000E+00  0.00000000E+00
  0.00000000E+00  0.00000000E+00  0.00000000E+00
  0.00000000E+00  0.00000000E+00  0.00000000E+00
  0.00000000E+00  0.00000000E+00  0.00000000E+00
  0.00000000E+00  0.00000000E+00  0.00000000E+00
  0.00000000E+00  0.00000000E+00  0.00000000E+00
  0.00000000E+00  0.00000000E+00  0.00000000E+00
