MA-Pb-I                                 
   1.0000000000000000     
     5.8857348584972646   -0.0000116429338373    0.0677019167604032
    -0.0000113721705701    5.8535748976198549   -0.0000048572736550
     0.0678468051824150   -0.0000044748208102    6.0066012361495211
   C    N    H    Pb   Br
     1     1     6     1     3
Direct
  0.8039990575125451  0.8475422008129698  0.8641634172833725 
  0.8531803518434011  0.7913621765011056  0.5776850006354439 
  0.6479529562233861  0.7514688704942455  0.8659320867482977 
  0.3426044436398203  0.8294949942883985  0.4657514646501175 
  0.0340221405806406  0.3238867957009490  0.0934623710664588 
  0.2103051099055642  0.1091180753014653  0.9645924937994615 
  0.8931528847678978  0.6172370963862340  0.5819653045988556 
  0.0040554122281768  0.8758137884286781  0.5647694567996604 
  0.5219482385273519  0.4789772582729871  0.5372952146657618 
  0.4343825501137815  0.4999407920523851  0.9818407606070920
  0.4217797225331665  0.9999416700962840  0.5296464633737443
  0.9610032600387797  0.4999434169907246  0.4296279775420402

  0.00000000E+00  0.00000000E+00  0.00000000E+00
  0.00000000E+00  0.00000000E+00  0.00000000E+00
  0.00000000E+00  0.00000000E+00  0.00000000E+00
  0.00000000E+00  0.00000000E+00  0.00000000E+00
  0.00000000E+00  0.00000000E+00  0.00000000E+00
  0.00000000E+00  0.00000000E+00  0.00000000E+00
  0.00000000E+00  0.00000000E+00  0.00000000E+00
  0.00000000E+00  0.00000000E+00  0.00000000E+00
  0.00000000E+00  0.00000000E+00  0.00000000E+00
  0.00000000E+00  0.00000000E+00  0.00000000E+00
  0.00000000E+00  0.00000000E+00  0.00000000E+00
  0.00000000E+00  0.00000000E+00  0.00000000E+00
