MA-Pb-I                                 
   1.00000000000000     
     5.6267413476480952    0.0000416704727542    0.0620815770375229
    -0.0000317550626923    5.5940171136319288    0.0000254647194750
     0.0578866146782483   -0.0000342937909938    5.7648243532177101
   C    N    H    Pb   Cl
     1     1     6     1     3
Direct
  0.6624346347587823  0.4698693308715534  0.4861047744206546
  0.4307431063926500  0.3426606683363679  0.4956048060202709
  0.6687567035607440  0.5951376357780434  0.6339404983079409
  0.6767754008578789  0.5687360244752659  0.3209919193396286
  0.8078126607990040  0.3375748789092787  0.4977574544185387
  0.2912400226218024  0.4674761571348338  0.4759224450825608
  0.3986005440428013  0.2592697940750875  0.6547398150087755
  0.4148767064929930  0.2145608961044421  0.3666520785342133
  0.0969050159387644  0.8514703997544882 -0.0094037926133897
  0.1042980908614770 -0.1531959341656909  0.4908619826817309
  0.5929694289685872  0.8594414359548133 -0.0089053838319421
  0.1026782050469870  0.3507501389445307 -0.0091353907099434
 
  0.00000000E+00  0.00000000E+00  0.00000000E+00
  0.00000000E+00  0.00000000E+00  0.00000000E+00
  0.00000000E+00  0.00000000E+00  0.00000000E+00
  0.00000000E+00  0.00000000E+00  0.00000000E+00
  0.00000000E+00  0.00000000E+00  0.00000000E+00
  0.00000000E+00  0.00000000E+00  0.00000000E+00
  0.00000000E+00  0.00000000E+00  0.00000000E+00
  0.00000000E+00  0.00000000E+00  0.00000000E+00
  0.00000000E+00  0.00000000E+00  0.00000000E+00
  0.00000000E+00  0.00000000E+00  0.00000000E+00
  0.00000000E+00  0.00000000E+00  0.00000000E+00
  0.00000000E+00  0.00000000E+00  0.00000000E+00
