MA-Pb-I                                 
   1.0000000000000000     
     5.6267413476480952    0.0000416704727542    0.0620815770375229
    -0.0000317550626923    5.5940171136319288    0.0000254647194750
     0.0578866146782483   -0.0000342937909938    5.7648243532177101
   C    N    H    Pb   Cl
     1     1     6     1     3
Direct
  0.5580230272762173  0.5512750548736517  0.4559314234439407 
  0.3614904561199605  0.4314962045537067  0.5761612083939557 
  0.6080120535131945  0.7001584851518098  0.5644772989816216 
  0.4987516322090372  0.6138972082081765  0.2796175419755486 
  0.7093507953762371  0.4275517781328601  0.4382259226489271 
  0.2131953849677282  0.5434415693892020  0.5960426090304954 
  0.4109489125651760  0.3684640332569585  0.7449790424765008 
  0.3041566906388009  0.2876438722838613  0.4832825618985155 
  0.3210655187584022  0.7397450622231567  0.8348756617870461 
  0.9135858188955126  0.0000223702692494  0.4744099460480626
  0.9004629834686284  0.5000248740275239  0.0232973215355017
  0.4490472465535831  0.0000309138028598  0.9238306684389244

  0.00000000E+00  0.00000000E+00  0.00000000E+00
  0.00000000E+00  0.00000000E+00  0.00000000E+00
  0.00000000E+00  0.00000000E+00  0.00000000E+00
  0.00000000E+00  0.00000000E+00  0.00000000E+00
  0.00000000E+00  0.00000000E+00  0.00000000E+00
  0.00000000E+00  0.00000000E+00  0.00000000E+00
  0.00000000E+00  0.00000000E+00  0.00000000E+00
  0.00000000E+00  0.00000000E+00  0.00000000E+00
  0.00000000E+00  0.00000000E+00  0.00000000E+00
  0.00000000E+00  0.00000000E+00  0.00000000E+00
  0.00000000E+00  0.00000000E+00  0.00000000E+00
  0.00000000E+00  0.00000000E+00  0.00000000E+00
