MA-Pb-I                                 
   1.0000000000000000     
     6.2884187138843197    0.0009579558247489    0.0690993966769832
     0.0005978161223733    6.2287690412624563   -0.0003732067435118
     0.0697053521696059    0.0000445224912706    6.3737103126460282
   C    N    H    Pb   I 
     1     1     6     1     3
Direct
  0.4238986817114186  0.5329452921910954  0.4827896370257346 
  0.6490470101609013  0.4849348570954216  0.4459908660890892 
  0.3995358507103158  0.6992806438144251  0.4427566736777687 
  0.3855049829916127  0.5047171449152141  0.6525838004421531 
  0.3249793366463435  0.4301046883964241  0.3792230541199683 
  0.7497043344964061  0.5789381705066420  0.5419058110725959 
  0.6929340804230462  0.5089917876550779  0.2857456092527428 
  0.6841850859035814  0.3291175720888076  0.4807711280647106 
  0.1721497121478472  0.2631053631807611  0.9199845678972647 
  0.9094873486598019  0.9999820990246278  0.4751454839169895
  0.8992708791277906  0.4999580210910821  0.0236644354684188
  0.4323428768805755  0.9999948727175436  0.9224794036872126

  0.00000000E+00  0.00000000E+00  0.00000000E+00
  0.00000000E+00  0.00000000E+00  0.00000000E+00
  0.00000000E+00  0.00000000E+00  0.00000000E+00
  0.00000000E+00  0.00000000E+00  0.00000000E+00
  0.00000000E+00  0.00000000E+00  0.00000000E+00
  0.00000000E+00  0.00000000E+00  0.00000000E+00
  0.00000000E+00  0.00000000E+00  0.00000000E+00
  0.00000000E+00  0.00000000E+00  0.00000000E+00
  0.00000000E+00  0.00000000E+00  0.00000000E+00
  0.00000000E+00  0.00000000E+00  0.00000000E+00
  0.00000000E+00  0.00000000E+00  0.00000000E+00
  0.00000000E+00  0.00000000E+00  0.00000000E+00
