MA-Pb-I                                 
   1.00000000000000     
     5.8892445321787328   -0.0048008041779134    0.0656571269169357
    -0.0053334077729528    5.8544884580747532    0.0012821621476484
     0.0639774282558244    0.0006908469467942    6.0230320529523143
   C    N    H    Pb   Br
     1     1     6     1     3
Direct
  0.9063713661920633  0.3655701416023698  0.9695064743511164 
  0.2272202395071193  0.3272226394004428  0.8258565526780108 
  0.8968824873658274  0.4841888110582763  0.8307036389463036 
  0.6950609468895288  0.1525417679490801  0.3567220129890737 
  0.0716913246358434  0.9030002960989618  0.1912367408932406 
  0.9562004083260405  0.7320779482035955  0.0415537114191550 
  0.3156497556546949  0.4757015331802246  0.8705580032103672 
  0.2308174951051121  0.2247037979262034  0.9650949071293524 
  0.5375732446517140  0.4964020336251256  0.4732076050240663 
  0.4352272726238539  0.4972012503325617  0.9832769846011953
  0.4159970891092727  0.9985715009710078  0.5336351900357424
  0.9598885390497535  0.4995712578389358  0.4264000332832606
 
  0.00000000E+00  0.00000000E+00  0.00000000E+00
  0.00000000E+00  0.00000000E+00  0.00000000E+00
  0.00000000E+00  0.00000000E+00  0.00000000E+00
  0.00000000E+00  0.00000000E+00  0.00000000E+00
  0.00000000E+00  0.00000000E+00  0.00000000E+00
  0.00000000E+00  0.00000000E+00  0.00000000E+00
  0.00000000E+00  0.00000000E+00  0.00000000E+00
  0.00000000E+00  0.00000000E+00  0.00000000E+00
  0.00000000E+00  0.00000000E+00  0.00000000E+00
  0.00000000E+00  0.00000000E+00  0.00000000E+00
  0.00000000E+00  0.00000000E+00  0.00000000E+00
  0.00000000E+00  0.00000000E+00  0.00000000E+00
