MA-Pb-I                                 
   1.00000000000000     
     5.8857348584972646   -0.0000116429338373    0.0677019167604032
    -0.0000113721705701    5.8535748976198549   -0.0000048572736550
     0.0678468051824150   -0.0000044748208102    6.0066012361495211
   C    N    H    Pb   Br
     1     1     6     1     3
Direct
  0.1618801701420175  0.3074320464588840  0.1796543085766239
  0.7922638263907994  0.8206612162846596  0.1766438943602079
  0.0226395738493989  0.3965372924747668  0.0846266841935823
  0.1753740534588069  0.1198234539352451  0.1477340049633508
  0.7380329462642354 -0.1672748787307148  0.3398654216208795
  0.6876948491858572  0.4195720915471561  0.8587280800877352
  0.7079787892407874  0.9444166650493120  0.0929639271711663
  0.9623585493867262  0.8647813514420462  0.1699171429831471
  0.2910197579227485  0.3705796421455670  0.5727522089375536
  0.4641223278487997  0.4527441664200021  0.0976660320965498
  0.3077310679973067  0.8805026169140290  0.5671883138823461
  0.7973718945724891  0.3778840537361842  0.6180649710853623
 
  0.00000000E+00  0.00000000E+00  0.00000000E+00
  0.00000000E+00  0.00000000E+00  0.00000000E+00
  0.00000000E+00  0.00000000E+00  0.00000000E+00
  0.00000000E+00  0.00000000E+00  0.00000000E+00
  0.00000000E+00  0.00000000E+00  0.00000000E+00
  0.00000000E+00  0.00000000E+00  0.00000000E+00
  0.00000000E+00  0.00000000E+00  0.00000000E+00
  0.00000000E+00  0.00000000E+00  0.00000000E+00
  0.00000000E+00  0.00000000E+00  0.00000000E+00
  0.00000000E+00  0.00000000E+00  0.00000000E+00
  0.00000000E+00  0.00000000E+00  0.00000000E+00
  0.00000000E+00  0.00000000E+00  0.00000000E+00
