MA-Pb-I                                 
   1.0000000000000000     
     5.8857348584972646   -0.0000116429338373    0.0677019167604032
    -0.0000113721705701    5.8535748976198549   -0.0000048572736550
     0.0678468051824150   -0.0000044748208102    6.0066012361495211
   C    N    H    Pb   Br
     1     1     6     1     3
Direct
  0.2885784935772930  0.3882173582458052  0.2993747257596735 
  0.5647388301803761  0.7334649105760126  0.1786845263389192 
  0.1960893090001057  0.5412621679529510  0.3394575858834692 
  0.0945485697327051  0.8081603665132058  0.2036997868843845 
  0.6388581992969506  0.0439809516059060  0.5591729069325351 
  0.8937758238298080  0.5275842857422071  0.6785702122704486 
  0.4531992033709098  0.7699546514408392  0.0439140608123347 
  0.6567191955297400  0.5948559423892267  0.1298036895596542 
  0.5047946490563613  0.3803532040715980  0.5320122939942066 
  0.4343825501137815  0.4999407920523851  0.9818407606070920
  0.4217797225331665  0.9999416700962840  0.5296464633737443
  0.9610032600387797  0.4999434169907246  0.4296279775420402

  0.00000000E+00  0.00000000E+00  0.00000000E+00
  0.00000000E+00  0.00000000E+00  0.00000000E+00
  0.00000000E+00  0.00000000E+00  0.00000000E+00
  0.00000000E+00  0.00000000E+00  0.00000000E+00
  0.00000000E+00  0.00000000E+00  0.00000000E+00
  0.00000000E+00  0.00000000E+00  0.00000000E+00
  0.00000000E+00  0.00000000E+00  0.00000000E+00
  0.00000000E+00  0.00000000E+00  0.00000000E+00
  0.00000000E+00  0.00000000E+00  0.00000000E+00
  0.00000000E+00  0.00000000E+00  0.00000000E+00
  0.00000000E+00  0.00000000E+00  0.00000000E+00
  0.00000000E+00  0.00000000E+00  0.00000000E+00
