MA-Pb-I                                 
   1.00000000000000     
     5.6267413476480952    0.0000416704727542    0.0620815770375229
    -0.0000317550626923    5.5940171136319288    0.0000254647194750
     0.0578866146782483   -0.0000342937909938    5.7648243532177101
   C    N    H    Pb   Cl
     1     1     6     1     3
Direct
  0.5097572327765919  0.3876641701178249  0.4689098491978171
  0.3603299129089301  0.5227605132170913  0.6393070273607344
  0.6765463398786300  0.4864672528775159  0.4373487639369341
  0.4167532046124381  0.3708994508917268  0.3019519042964512
  0.5501259837032698  0.2073813018033594  0.5373856769726484
  0.2473409440838365  0.6552903050149084  0.5694080007466942
  0.4584151644270064  0.6165868857277952  0.7618199360646828
  0.2421930624486094  0.4197995646597202  0.7401167165133054
 -0.0207832935866708 -0.0772379633936211  0.0732034708774475
 -0.0289076870248817 -0.0825097536592568  0.5726178090959290
  0.9902959310475694  0.4224004778935317  0.0753191757001137
  0.4772434961820631 -0.0788682090871730  0.0688182478328540
 
  0.00000000E+00  0.00000000E+00  0.00000000E+00
  0.00000000E+00  0.00000000E+00  0.00000000E+00
  0.00000000E+00  0.00000000E+00  0.00000000E+00
  0.00000000E+00  0.00000000E+00  0.00000000E+00
  0.00000000E+00  0.00000000E+00  0.00000000E+00
  0.00000000E+00  0.00000000E+00  0.00000000E+00
  0.00000000E+00  0.00000000E+00  0.00000000E+00
  0.00000000E+00  0.00000000E+00  0.00000000E+00
  0.00000000E+00  0.00000000E+00  0.00000000E+00
  0.00000000E+00  0.00000000E+00  0.00000000E+00
  0.00000000E+00  0.00000000E+00  0.00000000E+00
  0.00000000E+00  0.00000000E+00  0.00000000E+00
