MA-Pb-I                                 
   1.0000000000000000     
     5.6267413476480952    0.0000416704727542    0.0620815770375229
    -0.0000317550626923    5.5940171136319288    0.0000254647194750
     0.0578866146782483   -0.0000342937909938    5.7648243532177101
   C    N    H    Pb   Cl
     1     1     6     1     3
Direct
  0.4575925933265688  0.3861117461275946  0.4715505564462765 
  0.3467199833721291  0.5515360125662438  0.6381917942402549 
  0.5662298985125036  0.4895682444453172  0.3534739942947335 
  0.3184462940579203  0.2924253090011222  0.3696566112959391 
  0.5690585664600321  0.2582689716249129  0.5703057548151756 
  0.2382470531516492  0.6762378263207219  0.5510049604682069 
  0.4735744661220272  0.6441673332319501  0.7394144857408789 
  0.2403992697973443  0.4659493100328346  0.7564200453182177 
  0.4059461177395058  0.5862910846130885  0.3746504399534465 
  0.9135858188955126  0.0000223702692494  0.4744099460480626
  0.9004629834686284  0.5000248740275239  0.0232973215355017
  0.4490472465535831  0.0000309138028598  0.9238306684389244

  0.00000000E+00  0.00000000E+00  0.00000000E+00
  0.00000000E+00  0.00000000E+00  0.00000000E+00
  0.00000000E+00  0.00000000E+00  0.00000000E+00
  0.00000000E+00  0.00000000E+00  0.00000000E+00
  0.00000000E+00  0.00000000E+00  0.00000000E+00
  0.00000000E+00  0.00000000E+00  0.00000000E+00
  0.00000000E+00  0.00000000E+00  0.00000000E+00
  0.00000000E+00  0.00000000E+00  0.00000000E+00
  0.00000000E+00  0.00000000E+00  0.00000000E+00
  0.00000000E+00  0.00000000E+00  0.00000000E+00
  0.00000000E+00  0.00000000E+00  0.00000000E+00
  0.00000000E+00  0.00000000E+00  0.00000000E+00
