MA-Pb-I                                 
   1.00000000000000     
     5.8892445321787328   -0.0048008041779134    0.0656571269169357
    -0.0053334077729528    5.8544884580747532    0.0012821621476484
     0.0639774282558244    0.0006908469467942    6.0230320529523143
   C    N    H    Pb   Br
     1     1     6     1     3
Direct
  0.1495287974039941  0.8285406985747322  0.0433108673823783
  0.9222179091825164  0.8477837046928481  0.9623865570692902
  0.1516258799182927  0.8302399204948498  0.2244665526860204
  0.6386459654157139  0.2499574472739842 -0.0045381641824667
  0.2629591265755629 -0.0425645083393247 -0.0329814952283421
  0.8260617207474102  0.0183065136969498 -0.0209952049234589
  0.8126822518820345  0.7366281054564643  0.0447200653885031
  0.9115926367761464  0.8027364172989178  0.7958919589261326
  0.4468072341077342  0.4628002108243866  0.5123745207358991
  0.4248069024473761  0.4694811597277181  0.0077992312136616
  0.4616419604631801 -0.0374576872373929  0.5113924794864696
  0.9452794805876525  0.4618943692968278  0.5158761876009185
 
  0.00000000E+00  0.00000000E+00  0.00000000E+00
  0.00000000E+00  0.00000000E+00  0.00000000E+00
  0.00000000E+00  0.00000000E+00  0.00000000E+00
  0.00000000E+00  0.00000000E+00  0.00000000E+00
  0.00000000E+00  0.00000000E+00  0.00000000E+00
  0.00000000E+00  0.00000000E+00  0.00000000E+00
  0.00000000E+00  0.00000000E+00  0.00000000E+00
  0.00000000E+00  0.00000000E+00  0.00000000E+00
  0.00000000E+00  0.00000000E+00  0.00000000E+00
  0.00000000E+00  0.00000000E+00  0.00000000E+00
  0.00000000E+00  0.00000000E+00  0.00000000E+00
  0.00000000E+00  0.00000000E+00  0.00000000E+00
