MA-Pb-I                                 
   1.00000000000000     
     5.8892445321787328   -0.0048008041779134    0.0656571269169357
    -0.0053334077729528    5.8544884580747532    0.0012821621476484
     0.0639774282558244    0.0006908469467942    6.0230320529523143
   C    N    H    Pb   Br
     1     1     6     1     3
Direct
  0.7679129320741231  0.4911547665095037  0.5268893079951564 
  0.6996350035139624  0.7950923751828507  0.2824699905342685 
  0.8625679034448248  0.4540680298825951  0.3749298889305189 
  0.8788073410863246  0.8323662706928237  0.0107994777323540 
  0.4497465542038174  0.3069009022559736  0.8764901514152756 
  0.2060050805991473  0.4880078039698942  0.3552898056121286 
  0.7656951747060798  0.9474082015631154  0.2168961869231921 
  0.6026520188623570  0.8388659553412475  0.4188098116561911 
  0.5813812599194216  0.4834751395364013  0.5194283456790034 
  0.4352272726238539  0.4972012503325617  0.9832769846011953
  0.4159970891092727  0.9985715009710078  0.5336351900357424
  0.9598885390497535  0.4995712578389358  0.4264000332832606
 
  0.00000000E+00  0.00000000E+00  0.00000000E+00
  0.00000000E+00  0.00000000E+00  0.00000000E+00
  0.00000000E+00  0.00000000E+00  0.00000000E+00
  0.00000000E+00  0.00000000E+00  0.00000000E+00
  0.00000000E+00  0.00000000E+00  0.00000000E+00
  0.00000000E+00  0.00000000E+00  0.00000000E+00
  0.00000000E+00  0.00000000E+00  0.00000000E+00
  0.00000000E+00  0.00000000E+00  0.00000000E+00
  0.00000000E+00  0.00000000E+00  0.00000000E+00
  0.00000000E+00  0.00000000E+00  0.00000000E+00
  0.00000000E+00  0.00000000E+00  0.00000000E+00
  0.00000000E+00  0.00000000E+00  0.00000000E+00
