MA-Pb-I                                 
   1.00000000000000     
     5.6267413476480952    0.0000416704727542    0.0620815770375229
    -0.0000317550626923    5.5940171136319288    0.0000254647194750
     0.0578866146782483   -0.0000342937909938    5.7648243532177101
   C    N    H    Pb   Cl
     1     1     6     1     3
Direct
  0.5101768853332032  0.5282200365590766  0.6122061399777421
  0.2918128096647256  0.4683655522233504  0.4814335486393110
  0.6213902175538487  0.6498153134607109  0.5079806378389775
  0.6092774181737065  0.3616022549151903  0.6472273991765829
  0.4586055543328252  0.6167563894605707  0.7766286229234072
  0.2962357246374497  0.5311493057411092  0.3109401403598688
  0.1406730149025731  0.5456205435719819  0.5566481939143869
  0.2614661514880419  0.2847438473852340  0.4699406777630807
  0.9308515024767334 -0.0140488218990891  0.0858753376746872
  0.4254715668369097 -0.0202606010518377  0.1017240076006553
  0.9384953194010076  0.4873274478396029  0.0714208464795250
  0.9427493737672840 -0.0204629963251444  0.5819065461958267
 
  0.00000000E+00  0.00000000E+00  0.00000000E+00
  0.00000000E+00  0.00000000E+00  0.00000000E+00
  0.00000000E+00  0.00000000E+00  0.00000000E+00
  0.00000000E+00  0.00000000E+00  0.00000000E+00
  0.00000000E+00  0.00000000E+00  0.00000000E+00
  0.00000000E+00  0.00000000E+00  0.00000000E+00
  0.00000000E+00  0.00000000E+00  0.00000000E+00
  0.00000000E+00  0.00000000E+00  0.00000000E+00
  0.00000000E+00  0.00000000E+00  0.00000000E+00
  0.00000000E+00  0.00000000E+00  0.00000000E+00
  0.00000000E+00  0.00000000E+00  0.00000000E+00
  0.00000000E+00  0.00000000E+00  0.00000000E+00
