MA-Pb-I                                 
   1.00000000000000     
     5.8892445321787328   -0.0048008041779134    0.0656571269169357
    -0.0053334077729528    5.8544884580747532    0.0012821621476484
     0.0639774282558244    0.0006908469467942    6.0230320529523143
   C    N    H    Pb   Br
     1     1     6     1     3
Direct
  0.8234317865574864  0.7844784306207748  0.9301429769271330 
  0.9181428706657464  0.1233640831394327  0.6153194857084971 
  0.9833538111974366  0.7955655258536315  0.0180558715196835 
  0.8979289523174041  0.1086707840148814  0.0049778419648123 
  0.7480979351609641  0.7586790674757391  0.1874220940874638 
  0.1135238925330340  0.2936928123959852  0.4915575744295858 
  0.9604096209742190  0.9620471059438687  0.6789931505214004 
  0.7615176397280075  0.1078388773726542  0.5436404966323801 
  0.5137773706485242  0.5066812096203254  0.6013618315325321 
  0.4352272726238539  0.4972012503325617  0.9832769846011953
  0.4159970891092727  0.9985715009710078  0.5336351900357424
  0.9598885390497535  0.4995712578389358  0.4264000332832606
 
  0.00000000E+00  0.00000000E+00  0.00000000E+00
  0.00000000E+00  0.00000000E+00  0.00000000E+00
  0.00000000E+00  0.00000000E+00  0.00000000E+00
  0.00000000E+00  0.00000000E+00  0.00000000E+00
  0.00000000E+00  0.00000000E+00  0.00000000E+00
  0.00000000E+00  0.00000000E+00  0.00000000E+00
  0.00000000E+00  0.00000000E+00  0.00000000E+00
  0.00000000E+00  0.00000000E+00  0.00000000E+00
  0.00000000E+00  0.00000000E+00  0.00000000E+00
  0.00000000E+00  0.00000000E+00  0.00000000E+00
  0.00000000E+00  0.00000000E+00  0.00000000E+00
  0.00000000E+00  0.00000000E+00  0.00000000E+00
