MA-Pb-I                                 
   1.00000000000000     
     5.8857348584972646   -0.0000116429338373    0.0677019167604032
    -0.0000113721705701    5.8535748976198549   -0.0000048572736550
     0.0678468051824150   -0.0000044748208102    6.0066012361495211
   C    N    H    Pb   Br
     1     1     6     1     3
Direct
  0.8506253201821761  0.8944196211709389  0.2701905879118743
  0.8357031466047580  0.0658590932102083  0.1077598350115501
  0.9947311499787667  0.9195939046065076  0.3832527325205345
  0.8597568244675814  0.7117008919999883  0.2056628441257426
  0.2802607847222098  0.0501279418146135  0.6663163780952986
  0.1793984218106492  0.4659416592637110  0.7903315775773604
  0.9657912421699669  0.0781150221409684 -0.0133925214729364
  0.6800631304081846  0.0762891395764779  0.0354207025028392
  0.5379808033020552  0.4473006983355561  0.4841878640100590
  0.4621069377805710  0.4609110197941703  0.9583928286402674
  0.5271611986752677 -0.0471048468560315  0.4933618196047565
  0.0480688999120775  0.4513354339431417  0.5420032237883943
 
  0.00000000E+00  0.00000000E+00  0.00000000E+00
  0.00000000E+00  0.00000000E+00  0.00000000E+00
  0.00000000E+00  0.00000000E+00  0.00000000E+00
  0.00000000E+00  0.00000000E+00  0.00000000E+00
  0.00000000E+00  0.00000000E+00  0.00000000E+00
  0.00000000E+00  0.00000000E+00  0.00000000E+00
  0.00000000E+00  0.00000000E+00  0.00000000E+00
  0.00000000E+00  0.00000000E+00  0.00000000E+00
  0.00000000E+00  0.00000000E+00  0.00000000E+00
  0.00000000E+00  0.00000000E+00  0.00000000E+00
  0.00000000E+00  0.00000000E+00  0.00000000E+00
  0.00000000E+00  0.00000000E+00  0.00000000E+00
