MA-Pb-I                                 
   1.00000000000000     
     5.8857348584972646   -0.0000116429338373    0.0677019167604032
    -0.0000113721705701    5.8535748976198549   -0.0000048572736550
     0.0678468051824150   -0.0000044748208102    6.0066012361495211
   C    N    H    Pb   Br
     1     1     6     1     3
Direct
  0.0161110827653534  0.8947227747317643  0.8629266753890210
  0.1417804138228322  0.0676942670173573  0.9806628106810166
  0.0525332084565613 -0.2788286140891225 -0.0687725777322607
  0.0547955302458871  0.8842508770304567  0.6766396118998120
  0.8287036574849771  0.9230135850789105 -0.1222339733298170
  0.8624258280154687  0.0093418070299708  0.3651510886503170
  0.3141159005890841  0.0596037437872768  0.9371242215648115
  0.0944181952606224  0.2314443799127422  0.9379429178375633
  0.5930010147867257  0.5050921987237325  0.3926326311292508
  0.5851005545060776  0.4932935832004922  0.8925423200732063
  0.6070572465361359  0.0067161798894416  0.3729579068597629
  0.0894169930684127  0.5144375684155374  0.4016077176505521
 
  0.00000000E+00  0.00000000E+00  0.00000000E+00
  0.00000000E+00  0.00000000E+00  0.00000000E+00
  0.00000000E+00  0.00000000E+00  0.00000000E+00
  0.00000000E+00  0.00000000E+00  0.00000000E+00
  0.00000000E+00  0.00000000E+00  0.00000000E+00
  0.00000000E+00  0.00000000E+00  0.00000000E+00
  0.00000000E+00  0.00000000E+00  0.00000000E+00
  0.00000000E+00  0.00000000E+00  0.00000000E+00
  0.00000000E+00  0.00000000E+00  0.00000000E+00
  0.00000000E+00  0.00000000E+00  0.00000000E+00
  0.00000000E+00  0.00000000E+00  0.00000000E+00
  0.00000000E+00  0.00000000E+00  0.00000000E+00
