MA-Pb-I                                 
   1.00000000000000     
     5.6267413476480952    0.0000416704727542    0.0620815770375229
    -0.0000317550626923    5.5940171136319288    0.0000254647194750
     0.0578866146782483   -0.0000342937909938    5.7648243532177101
   C    N    H    Pb   Cl
     1     1     6     1     3
Direct
  0.6205059525797735  0.4725697525408469  0.3981066590092483
  0.4004858750861016  0.4890988896346541  0.5462088339920238
  0.7516180931210946  0.6038325898189276  0.4602599878411254
  0.5761594378121538  0.5167477959796020  0.2174265689479989
  0.6906581448027683  0.2897136036394334  0.4081548068226060
  0.3121445137559453  0.6521080440777907  0.5241048784642202
  0.4316408687547889  0.4735555716072783  0.7220444160785116
  0.2817525343172065  0.3491747966301411  0.5085577689464835
  0.0691330365434211  0.0031130635348078  0.0071057917057896
  0.0717702168360036  0.0000644926412743  0.5044328278712443
  0.0737502415562112  0.5030335364703417  0.0135416451125184
  0.5683501057731112  0.0052154125169940  0.0038008666214801
 
  0.00000000E+00  0.00000000E+00  0.00000000E+00
  0.00000000E+00  0.00000000E+00  0.00000000E+00
  0.00000000E+00  0.00000000E+00  0.00000000E+00
  0.00000000E+00  0.00000000E+00  0.00000000E+00
  0.00000000E+00  0.00000000E+00  0.00000000E+00
  0.00000000E+00  0.00000000E+00  0.00000000E+00
  0.00000000E+00  0.00000000E+00  0.00000000E+00
  0.00000000E+00  0.00000000E+00  0.00000000E+00
  0.00000000E+00  0.00000000E+00  0.00000000E+00
  0.00000000E+00  0.00000000E+00  0.00000000E+00
  0.00000000E+00  0.00000000E+00  0.00000000E+00
  0.00000000E+00  0.00000000E+00  0.00000000E+00
