MA-Pb-I                                 
   1.0000000000000000     
     5.6267413476480952    0.0000416704727542    0.0620815770375229
    -0.0000317550626923    5.5940171136319288    0.0000254647194750
     0.0578866146782483   -0.0000342937909938    5.7648243532177101
   C    N    H    Pb   Cl
     1     1     6     1     3
Direct
  0.6844236182566904  0.4749947415416376  0.4403463894509915 
  0.4555249264425055  0.4960954059391148  0.5611246016671179 
  0.8095167177862783  0.5811870676550774  0.5379286213195623 
  0.6682499803272239  0.5424396959877165  0.2567413548909185 
  0.7416264189598878  0.2872479301838440  0.4403885878567310 
  0.3943364843336902  0.6726278719163769  0.5643996491097247 
  0.4632382043878316  0.4330032879368556  0.7368475217031073 
  0.3272465090063207  0.3996488606983399  0.4783610307573594 
  0.0407101125204130  0.9709045291334891  0.8760693586352406 
  0.9135858188955126  0.0000223702692494  0.4744099460480626
  0.9004629834686284  0.5000248740275239  0.0232973215355017
  0.4490472465535831  0.0000309138028598  0.9238306684389244

  0.00000000E+00  0.00000000E+00  0.00000000E+00
  0.00000000E+00  0.00000000E+00  0.00000000E+00
  0.00000000E+00  0.00000000E+00  0.00000000E+00
  0.00000000E+00  0.00000000E+00  0.00000000E+00
  0.00000000E+00  0.00000000E+00  0.00000000E+00
  0.00000000E+00  0.00000000E+00  0.00000000E+00
  0.00000000E+00  0.00000000E+00  0.00000000E+00
  0.00000000E+00  0.00000000E+00  0.00000000E+00
  0.00000000E+00  0.00000000E+00  0.00000000E+00
  0.00000000E+00  0.00000000E+00  0.00000000E+00
  0.00000000E+00  0.00000000E+00  0.00000000E+00
  0.00000000E+00  0.00000000E+00  0.00000000E+00
