MA-Pb-I                                 
   1.0000000000000000     
     5.8857348584972646   -0.0000116429338373    0.0677019167604032
    -0.0000113721705701    5.8535748976198549   -0.0000048572736550
     0.0678468051824150   -0.0000044748208102    6.0066012361495211
   C    N    H    Pb   Br
     1     1     6     1     3
Direct
  0.8908860490296507  0.0635726538648076  0.7533294383841656 
  0.3611180801032921  0.3419648690677329  0.6961137236135041 
  0.8542256739299843  0.1869403794415546  0.6228686400525385 
  0.3476727759629653  0.1865298678604383  0.3771296712517314 
  0.9234272176468061  0.7352166921506037  0.0695949838645830 
  0.8072021417187514  0.9693460825797945  0.0835338284272784 
  0.3711754676862787  0.5055020748656391  0.7674586546895686 
  0.3855037762552100  0.2302319707382191  0.8264335882923853 
  0.4720026113641348  0.5210289991085978  0.4047086828578909 
  0.4343825501137815  0.4999407920523851  0.9818407606070920
  0.4217797225331665  0.9999416700962840  0.5296464633737443
  0.9610032600387797  0.4999434169907246  0.4296279775420402

  0.00000000E+00  0.00000000E+00  0.00000000E+00
  0.00000000E+00  0.00000000E+00  0.00000000E+00
  0.00000000E+00  0.00000000E+00  0.00000000E+00
  0.00000000E+00  0.00000000E+00  0.00000000E+00
  0.00000000E+00  0.00000000E+00  0.00000000E+00
  0.00000000E+00  0.00000000E+00  0.00000000E+00
  0.00000000E+00  0.00000000E+00  0.00000000E+00
  0.00000000E+00  0.00000000E+00  0.00000000E+00
  0.00000000E+00  0.00000000E+00  0.00000000E+00
  0.00000000E+00  0.00000000E+00  0.00000000E+00
  0.00000000E+00  0.00000000E+00  0.00000000E+00
  0.00000000E+00  0.00000000E+00  0.00000000E+00
