MA-Pb-I                                 
   1.0000000000000000     
     5.6267413476480952    0.0000416704727542    0.0620815770375229
    -0.0000317550626923    5.5940171136319288    0.0000254647194750
     0.0578866146782483   -0.0000342937909938    5.7648243532177101
   C    N    H    Pb   Cl
     1     1     6     1     3
Direct
  0.4559566023061356  0.3678671133171776  0.5456114858945476 
  0.5859833742485888  0.5589812274857797  0.6639147387752679 
  0.4188351972721748  0.4267373677886367  0.3678372468200282 
  0.2880029305519513  0.3337194555123483  0.6412499654445943 
  0.5670126907350257  0.2061149515486262  0.5407318598751663 
  0.4858158649239816  0.7164806744225095  0.6727948974336080 
  0.7478075313588097  0.5966612812110468  0.5784056143295389 
  0.6276414541925874  0.5158847569187169  0.8342508645342779 
  0.2667600238119832  0.5546893571060175  0.9530716514173057 
  0.9135858188955126  0.0000223702692494  0.4744099460480626
  0.9004629834686284  0.5000248740275239  0.0232973215355017
  0.4490472465535831  0.0000309138028598  0.9238306684389244

  0.00000000E+00  0.00000000E+00  0.00000000E+00
  0.00000000E+00  0.00000000E+00  0.00000000E+00
  0.00000000E+00  0.00000000E+00  0.00000000E+00
  0.00000000E+00  0.00000000E+00  0.00000000E+00
  0.00000000E+00  0.00000000E+00  0.00000000E+00
  0.00000000E+00  0.00000000E+00  0.00000000E+00
  0.00000000E+00  0.00000000E+00  0.00000000E+00
  0.00000000E+00  0.00000000E+00  0.00000000E+00
  0.00000000E+00  0.00000000E+00  0.00000000E+00
  0.00000000E+00  0.00000000E+00  0.00000000E+00
  0.00000000E+00  0.00000000E+00  0.00000000E+00
  0.00000000E+00  0.00000000E+00  0.00000000E+00
