MA-Pb-I                                 
   1.0000000000000000     
     6.2884187138843197    0.0009579558247489    0.0690993966769832
     0.0005978161223733    6.2287690412624563   -0.0003732067435118
     0.0697053521696059    0.0000445224912706    6.3737103126460282
   C    N    H    Pb   I 
     1     1     6     1     3
Direct
  0.5607544879009830  0.6048385054610169  0.4691973455079360 
  0.3720762703039279  0.4930215497690795  0.5482442926235925 
  0.6982088394056103  0.5074554776482756  0.5077522678257131 
  0.5728218251160181  0.7617730276578940  0.5487391423550909 
  0.5472939120333931  0.6250334757255877  0.2945598930956345 
  0.3775312185825193  0.4705851924609600  0.7144822243837073 
  0.3536241390611156  0.3424887367256740  0.4762530137592029 
  0.2349006789710938  0.5763524935656889  0.5172251332978274 
  0.8754662527574879  0.6981047134151992  0.0570017761181543 
  0.9094873486598019  0.9999820990246278  0.4751454839169895
  0.8992708791277906  0.4999580210910821  0.0236644354684188
  0.4323428768805755  0.9999948727175436  0.9224794036872126

  0.00000000E+00  0.00000000E+00  0.00000000E+00
  0.00000000E+00  0.00000000E+00  0.00000000E+00
  0.00000000E+00  0.00000000E+00  0.00000000E+00
  0.00000000E+00  0.00000000E+00  0.00000000E+00
  0.00000000E+00  0.00000000E+00  0.00000000E+00
  0.00000000E+00  0.00000000E+00  0.00000000E+00
  0.00000000E+00  0.00000000E+00  0.00000000E+00
  0.00000000E+00  0.00000000E+00  0.00000000E+00
  0.00000000E+00  0.00000000E+00  0.00000000E+00
  0.00000000E+00  0.00000000E+00  0.00000000E+00
  0.00000000E+00  0.00000000E+00  0.00000000E+00
  0.00000000E+00  0.00000000E+00  0.00000000E+00
