MA-Pb-I                                 
   1.00000000000000     
     5.8892445321787328   -0.0048008041779134    0.0656571269169357
    -0.0053334077729528    5.8544884580747532    0.0012821621476484
     0.0639774282558244    0.0006908469467942    6.0230320529523143
   C    N    H    Pb   Br
     1     1     6     1     3
Direct
  0.3111894727519219  0.9619238501093607  0.9408462204170966 
  0.2402654621093880  0.3167878239421804  0.2902779766097359 
  0.3683206048246346  0.9265581507639535  0.7708110601143385 
  0.2916387955249010  0.5405159179886461  0.8087201755486657 
  0.6615647327649012  0.0074998718702602  0.0480832949716209 
  0.7307344249863905  0.9104024016486272  0.9299378217156123 
  0.1116325029413319  0.3627137417337904  0.1753503785554553 
  0.1754317057168429  0.3423150247628195  0.4485666954297132 
  0.5577696520144326  0.5532870274878301  0.4395148223656051 
  0.4352272726238539  0.4972012503325617  0.9832769846011953
  0.4159970891092727  0.9985715009710078  0.5336351900357424
  0.9598885390497535  0.4995712578389358  0.4264000332832606
 
  0.00000000E+00  0.00000000E+00  0.00000000E+00
  0.00000000E+00  0.00000000E+00  0.00000000E+00
  0.00000000E+00  0.00000000E+00  0.00000000E+00
  0.00000000E+00  0.00000000E+00  0.00000000E+00
  0.00000000E+00  0.00000000E+00  0.00000000E+00
  0.00000000E+00  0.00000000E+00  0.00000000E+00
  0.00000000E+00  0.00000000E+00  0.00000000E+00
  0.00000000E+00  0.00000000E+00  0.00000000E+00
  0.00000000E+00  0.00000000E+00  0.00000000E+00
  0.00000000E+00  0.00000000E+00  0.00000000E+00
  0.00000000E+00  0.00000000E+00  0.00000000E+00
  0.00000000E+00  0.00000000E+00  0.00000000E+00
