MA-Pb-I                                 
   1.00000000000000     
     5.6267413476480952    0.0000416704727542    0.0620815770375229
    -0.0000317550626923    5.5940171136319288    0.0000254647194750
     0.0578866146782483   -0.0000342937909938    5.7648243532177101
   C    N    H    Pb   Cl
     1     1     6     1     3
Direct
  0.4692249034939009  0.5996051046058543  0.6148019424903108
  0.3879308171715061  0.3648133585917796  0.5268427977365282
  0.4458154281050392  0.6054989190426221  0.8051272628693830
  0.3620988768876806  0.7427633847312662  0.5357658892675666
  0.6585179746251359  0.6258085006613586  0.5677965688212622
  0.2097326014755150  0.3235624188530415  0.5676671363617457
  0.4912594085845624  0.2269175383708992  0.5970079374519399
  0.4067182219758511  0.3441926714367166  0.3464546621140074
  0.9107067454793327  0.0375912355225112  0.0658996266611184
  0.9078249143700645  0.0422691853763736  0.5687211366362305
  0.9109035487584736  0.5370436087825300  0.0671805890548133
  0.4127693567446097  0.0410322729104707  0.0633761023842885
 
  0.00000000E+00  0.00000000E+00  0.00000000E+00
  0.00000000E+00  0.00000000E+00  0.00000000E+00
  0.00000000E+00  0.00000000E+00  0.00000000E+00
  0.00000000E+00  0.00000000E+00  0.00000000E+00
  0.00000000E+00  0.00000000E+00  0.00000000E+00
  0.00000000E+00  0.00000000E+00  0.00000000E+00
  0.00000000E+00  0.00000000E+00  0.00000000E+00
  0.00000000E+00  0.00000000E+00  0.00000000E+00
  0.00000000E+00  0.00000000E+00  0.00000000E+00
  0.00000000E+00  0.00000000E+00  0.00000000E+00
  0.00000000E+00  0.00000000E+00  0.00000000E+00
  0.00000000E+00  0.00000000E+00  0.00000000E+00
