MA-Pb-I                                 
   1.00000000000000     
     5.8857348584972646   -0.0000116429338373    0.0677019167604032
    -0.0000113721705701    5.8535748976198549   -0.0000048572736550
     0.0678468051824150   -0.0000044748208102    6.0066012361495211
   C    N    H    Pb   Br
     1     1     6     1     3
Direct
  0.2688865246444573  0.8067506363291107  0.0503709650372803
  0.1923075055237408  0.1349267382934828  0.2971499650687641
  0.3305970722837817  0.9347924183562834  0.9394323797043600
  0.1005583635933554  0.7112238660522449  0.0519010216004630
  0.6826154082476090  0.0167330104966283  0.0443773078166611
  0.6780185111009409  0.0289291060459481 -0.0927068731561873
  0.0617398174483858  0.2008896881223877  0.2101939881862795
  0.1120418128333310  0.0484367157601899  0.4351129490127202
  0.6053883444341368  0.5097444204080090  0.5525974650108573
  0.5264753150609518  0.5703984045724213  0.0573698530350870
  0.6302153919885941 -0.0050266987959047  0.5156963439162875
  0.1168323036132402  0.4996212848030976  0.5729980998322778
 
  0.00000000E+00  0.00000000E+00  0.00000000E+00
  0.00000000E+00  0.00000000E+00  0.00000000E+00
  0.00000000E+00  0.00000000E+00  0.00000000E+00
  0.00000000E+00  0.00000000E+00  0.00000000E+00
  0.00000000E+00  0.00000000E+00  0.00000000E+00
  0.00000000E+00  0.00000000E+00  0.00000000E+00
  0.00000000E+00  0.00000000E+00  0.00000000E+00
  0.00000000E+00  0.00000000E+00  0.00000000E+00
  0.00000000E+00  0.00000000E+00  0.00000000E+00
  0.00000000E+00  0.00000000E+00  0.00000000E+00
  0.00000000E+00  0.00000000E+00  0.00000000E+00
  0.00000000E+00  0.00000000E+00  0.00000000E+00
