MA-Pb-I                                 
   1.0000000000000000     
     5.8857348584972646   -0.0000116429338373    0.0677019167604032
    -0.0000113721705701    5.8535748976198549   -0.0000048572736550
     0.0678468051824150   -0.0000044748208102    6.0066012361495211
   C    N    H    Pb   Br
     1     1     6     1     3
Direct
  0.2342084254314142  0.9389068551979310  0.9929056717546877 
  0.2414403727828520  0.2107152467277358  0.4202544178314249 
  0.3034947425268905  0.9031282573560162  0.8270656979318336 
  0.3590124100438445  0.5441251411291248  0.8841459705763195 
  0.6546000591182889  0.9699531193102902  0.1315320885007319 
  0.8252504788068584  0.8637979666253713  0.0421519874868353 
  0.1290462128446674  0.2736817943901901  0.2964059838377274 
  0.1651213439022499  0.2374978714014546  0.5736176035122054 
  0.5763367926297281  0.5157874591663951  0.5252988421102092 
  0.4343825501137815  0.4999407920523851  0.9818407606070920
  0.4217797225331665  0.9999416700962840  0.5296464633737443
  0.9610032600387797  0.4999434169907246  0.4296279775420402

  0.00000000E+00  0.00000000E+00  0.00000000E+00
  0.00000000E+00  0.00000000E+00  0.00000000E+00
  0.00000000E+00  0.00000000E+00  0.00000000E+00
  0.00000000E+00  0.00000000E+00  0.00000000E+00
  0.00000000E+00  0.00000000E+00  0.00000000E+00
  0.00000000E+00  0.00000000E+00  0.00000000E+00
  0.00000000E+00  0.00000000E+00  0.00000000E+00
  0.00000000E+00  0.00000000E+00  0.00000000E+00
  0.00000000E+00  0.00000000E+00  0.00000000E+00
  0.00000000E+00  0.00000000E+00  0.00000000E+00
  0.00000000E+00  0.00000000E+00  0.00000000E+00
  0.00000000E+00  0.00000000E+00  0.00000000E+00
