MA-Pb-I                                 
   1.0000000000000000     
     6.2884187138843197    0.0009579558247489    0.0690993966769832
     0.0005978161223733    6.2287690412624563   -0.0003732067435118
     0.0697053521696059    0.0000445224912706    6.3737103126460282
   C    N    H    Pb   I 
     1     1     6     1     3
Direct
  0.5910607943450807  0.4775026154594298  0.4053542049235376 
  0.5141227082605601  0.5302383844764758  0.6190137256567627 
  0.6134832591941108  0.6263826363853814  0.3205272792003521 
  0.4708472014377032  0.3779342349409506  0.3232823339108444 
  0.7441811636241564  0.3910860390062335  0.4185296190605316 
  0.3678714271965936  0.6124469899034291  0.6144855332177815 
  0.6240377641161736  0.6247275206673178  0.7037122310795803 
  0.4891316422674759  0.3961734849472583  0.7091548740384739 
  0.8770966418219243  0.3551676850939718  0.9522746316234475 
  0.9094873486598019  0.9999820990246278  0.4751454839169895
  0.8992708791277906  0.4999580210910821  0.0236644354684188
  0.4323428768805755  0.9999948727175436  0.9224794036872126

  0.00000000E+00  0.00000000E+00  0.00000000E+00
  0.00000000E+00  0.00000000E+00  0.00000000E+00
  0.00000000E+00  0.00000000E+00  0.00000000E+00
  0.00000000E+00  0.00000000E+00  0.00000000E+00
  0.00000000E+00  0.00000000E+00  0.00000000E+00
  0.00000000E+00  0.00000000E+00  0.00000000E+00
  0.00000000E+00  0.00000000E+00  0.00000000E+00
  0.00000000E+00  0.00000000E+00  0.00000000E+00
  0.00000000E+00  0.00000000E+00  0.00000000E+00
  0.00000000E+00  0.00000000E+00  0.00000000E+00
  0.00000000E+00  0.00000000E+00  0.00000000E+00
  0.00000000E+00  0.00000000E+00  0.00000000E+00
