MA-Pb-I                                 
   1.00000000000000     
     5.8892445321787328   -0.0048008041779134    0.0656571269169357
    -0.0053334077729528    5.8544884580747532    0.0012821621476484
     0.0639774282558244    0.0006908469467942    6.0230320529523143
   C    N    H    Pb   Br
     1     1     6     1     3
Direct
  0.0392459661267417  0.9573100845230986  0.3974020645789055 
  0.3286395238203993  0.7014575553954393  0.8027318202227662 
  0.8698153399812820  0.9446686201016682  0.3298734707647049 
  0.8721594434579982  0.3436589691620966  0.7222158256874565 
  0.1318787254010247  0.1124008771318865  0.1244603599157048 
  0.9499107172477601  0.8993595521717062  0.5505583125526334 
  0.2162092476623610  0.6621150332970724  0.9356813590028071 
  0.4873441843762980  0.7007710611317552  0.8714539556584314 
  0.4892233446423668  0.5468595712498242  0.5058081603127935 
  0.4352272726238539  0.4972012503325617  0.9832769846011953
  0.4159970891092727  0.9985715009710078  0.5336351900357424
  0.9598885390497535  0.4995712578389358  0.4264000332832606
 
  0.00000000E+00  0.00000000E+00  0.00000000E+00
  0.00000000E+00  0.00000000E+00  0.00000000E+00
  0.00000000E+00  0.00000000E+00  0.00000000E+00
  0.00000000E+00  0.00000000E+00  0.00000000E+00
  0.00000000E+00  0.00000000E+00  0.00000000E+00
  0.00000000E+00  0.00000000E+00  0.00000000E+00
  0.00000000E+00  0.00000000E+00  0.00000000E+00
  0.00000000E+00  0.00000000E+00  0.00000000E+00
  0.00000000E+00  0.00000000E+00  0.00000000E+00
  0.00000000E+00  0.00000000E+00  0.00000000E+00
  0.00000000E+00  0.00000000E+00  0.00000000E+00
  0.00000000E+00  0.00000000E+00  0.00000000E+00
