MA-Pb-I                                 
   1.0000000000000000     
     6.2884187138843197    0.0009579558247489    0.0690993966769832
     0.0005978161223733    6.2287690412624563   -0.0003732067435118
     0.0697053521696059    0.0000445224912706    6.3737103126460282
   C    N    H    Pb   I 
     1     1     6     1     3
Direct
  0.6168054622135718  0.4873512193702662  0.4237022476263584 
  0.4424708847467435  0.4335673237934577  0.5688424174628485 
  0.5857015237869014  0.6459154435302950  0.3624358888367041 
  0.6205865060925050  0.3704980406195915  0.2916719455993390 
  0.7690737083700507  0.4850197545336987  0.5125628643014563 
  0.2938297065161158  0.4332260823224582  0.4909073147534177 
  0.4330319548092778  0.5405282003271646  0.6978913642833084 
  0.4612551898869645  0.2845717499423573  0.6334245059239991 
  0.9432594650473376  0.8886437110313989  0.5319506128669040 
  0.9094873486598019  0.9999820990246278  0.4751454839169895
  0.8992708791277906  0.4999580210910821  0.0236644354684188
  0.4323428768805755  0.9999948727175436  0.9224794036872126

  0.00000000E+00  0.00000000E+00  0.00000000E+00
  0.00000000E+00  0.00000000E+00  0.00000000E+00
  0.00000000E+00  0.00000000E+00  0.00000000E+00
  0.00000000E+00  0.00000000E+00  0.00000000E+00
  0.00000000E+00  0.00000000E+00  0.00000000E+00
  0.00000000E+00  0.00000000E+00  0.00000000E+00
  0.00000000E+00  0.00000000E+00  0.00000000E+00
  0.00000000E+00  0.00000000E+00  0.00000000E+00
  0.00000000E+00  0.00000000E+00  0.00000000E+00
  0.00000000E+00  0.00000000E+00  0.00000000E+00
  0.00000000E+00  0.00000000E+00  0.00000000E+00
  0.00000000E+00  0.00000000E+00  0.00000000E+00
