MA-Pb-I                                 
   1.0000000000000000     
     5.8857348584972646   -0.0000116429338373    0.0677019167604032
    -0.0000113721705701    5.8535748976198549   -0.0000048572736550
     0.0678468051824150   -0.0000044748208102    6.0066012361495211
   C    N    H    Pb   Br
     1     1     6     1     3
Direct
  0.1522808438798395  0.8269052818954596  0.3076282646800219 
  0.3293910898002714  0.7063057601274125  0.1588824359305721 
  0.9952615325443749  0.9113975497943907  0.3499318254141375 
  0.9096159693880744  0.6123921052017604  0.1627787224407708 
  0.2568830593961221  0.0580271065003857  0.5616025859212717 
  0.8610808925983947  0.2351783418139034  0.6098678372001605 
  0.2179895924827575  0.6931887401824677  0.0197662323502219 
  0.4790730040478550  0.6347454452177106  0.1085176093841376 
  0.4687492407150269  0.4181393899629351  0.4925449785663382 
  0.4343825501137815  0.4999407920523851  0.9818407606070920
  0.4217797225331665  0.9999416700962840  0.5296464633737443
  0.9610032600387797  0.4999434169907246  0.4296279775420402

  0.00000000E+00  0.00000000E+00  0.00000000E+00
  0.00000000E+00  0.00000000E+00  0.00000000E+00
  0.00000000E+00  0.00000000E+00  0.00000000E+00
  0.00000000E+00  0.00000000E+00  0.00000000E+00
  0.00000000E+00  0.00000000E+00  0.00000000E+00
  0.00000000E+00  0.00000000E+00  0.00000000E+00
  0.00000000E+00  0.00000000E+00  0.00000000E+00
  0.00000000E+00  0.00000000E+00  0.00000000E+00
  0.00000000E+00  0.00000000E+00  0.00000000E+00
  0.00000000E+00  0.00000000E+00  0.00000000E+00
  0.00000000E+00  0.00000000E+00  0.00000000E+00
  0.00000000E+00  0.00000000E+00  0.00000000E+00
