MA-Pb-I                                 
   1.00000000000000     
     5.8892445321787328   -0.0048008041779134    0.0656571269169357
    -0.0053334077729528    5.8544884580747532    0.0012821621476484
     0.0639774282558244    0.0006908469467942    6.0230320529523143
   C    N    H    Pb   Br
     1     1     6     1     3
Direct
  0.8526071819904202  0.0651579759735666  0.9351989734551945
  0.9251955643461000  0.1986948943213426  0.0858659127461884
  0.9360710899413391  0.8998981862023200  0.9088776142415801
  0.7032681012593505  0.1167645226115823  0.8404090295142840
  0.3597911821049519 -0.0046001138918863 -0.0265477316011283
  0.3526828236104280  0.1185087453450518  0.9106955680875690
  0.0624444294878742  0.1552203126451098  0.1856826783057338
  0.8565770774625341  0.3569004470433767  0.1250703819148162
  0.3762736712041917  0.5757758746859709  0.4505034750328191
  0.3757879011001118  0.5595543173348233  0.9507021086476692
  0.3641748049705827  0.0774774924046306  0.4441037010264551
  0.8772099341642563  0.5795756064656868  0.4564857031756218
 
  0.00000000E+00  0.00000000E+00  0.00000000E+00
  0.00000000E+00  0.00000000E+00  0.00000000E+00
  0.00000000E+00  0.00000000E+00  0.00000000E+00
  0.00000000E+00  0.00000000E+00  0.00000000E+00
  0.00000000E+00  0.00000000E+00  0.00000000E+00
  0.00000000E+00  0.00000000E+00  0.00000000E+00
  0.00000000E+00  0.00000000E+00  0.00000000E+00
  0.00000000E+00  0.00000000E+00  0.00000000E+00
  0.00000000E+00  0.00000000E+00  0.00000000E+00
  0.00000000E+00  0.00000000E+00  0.00000000E+00
  0.00000000E+00  0.00000000E+00  0.00000000E+00
  0.00000000E+00  0.00000000E+00  0.00000000E+00
