MA-Pb-I                                 
   1.00000000000000     
     5.6267413476480952    0.0000416704727542    0.0620815770375229
    -0.0000317550626923    5.5940171136319288    0.0000254647194750
     0.0578866146782483   -0.0000342937909938    5.7648243532177101
   C    N    H    Pb   Cl
     1     1     6     1     3
Direct
  0.4836875554279377  0.4268638960160968  0.5841692429373294
  0.4107417154214744  0.5327627801527580  0.3604590849373623
  0.4322989723513930  0.5499415649346238  0.7264720695977490
  0.6771463646884386  0.3983202191892038  0.5804355650614645
  0.3905660395023031  0.2547162331053846  0.6077096651690961
  0.4734109439854424  0.7063536202168637  0.3306394051653793
  0.2259190988279791  0.5391039170805393  0.3407487601969921
  0.4733019064504565  0.4256529126143901  0.2221460562708928
 -0.0398240692294975  0.0261415786685955  0.0470010577766187
  0.9662451919917942  0.0264017313839477  0.5444160907327495
  0.9553201778506930  0.5252860106178399  0.0498379624758508
  0.4616475233662611  0.0272511393916154  0.0506363171742945
 
  0.00000000E+00  0.00000000E+00  0.00000000E+00
  0.00000000E+00  0.00000000E+00  0.00000000E+00
  0.00000000E+00  0.00000000E+00  0.00000000E+00
  0.00000000E+00  0.00000000E+00  0.00000000E+00
  0.00000000E+00  0.00000000E+00  0.00000000E+00
  0.00000000E+00  0.00000000E+00  0.00000000E+00
  0.00000000E+00  0.00000000E+00  0.00000000E+00
  0.00000000E+00  0.00000000E+00  0.00000000E+00
  0.00000000E+00  0.00000000E+00  0.00000000E+00
  0.00000000E+00  0.00000000E+00  0.00000000E+00
  0.00000000E+00  0.00000000E+00  0.00000000E+00
  0.00000000E+00  0.00000000E+00  0.00000000E+00
