MA-Pb-I                                 
   1.0000000000000000     
     5.6267413476480952    0.0000416704727542    0.0620815770375229
    -0.0000317550626923    5.5940171136319288    0.0000254647194750
     0.0578866146782483   -0.0000342937909938    5.7648243532177101
   C    N    H    Pb   Cl
     1     1     6     1     3
Direct
  0.4881672419167236  0.4034961592827399  0.6351255918525897 
  0.4390284418841557  0.5048228633455054  0.4011480222577248 
  0.4540741073174841  0.5402260688326115  0.7639276712590812 
  0.6762197177265648  0.3480939094748739  0.6445103783674024 
  0.3692464715938782  0.2505963071935013  0.6667564783549337 
  0.5493261521909764  0.6509672637548299  0.3638024434358610 
  0.2610758890828608  0.5594192078523258  0.3846925443053058 
  0.4675415795552729  0.3849292786362105  0.2691645897207182 
  0.9426857704490397  0.2961663868996251  0.8940056219196796 
  0.9135858188955126  0.0000223702692494  0.4744099460480626
  0.9004629834686284  0.5000248740275239  0.0232973215355017
  0.4490472465535831  0.0000309138028598  0.9238306684389244

  0.00000000E+00  0.00000000E+00  0.00000000E+00
  0.00000000E+00  0.00000000E+00  0.00000000E+00
  0.00000000E+00  0.00000000E+00  0.00000000E+00
  0.00000000E+00  0.00000000E+00  0.00000000E+00
  0.00000000E+00  0.00000000E+00  0.00000000E+00
  0.00000000E+00  0.00000000E+00  0.00000000E+00
  0.00000000E+00  0.00000000E+00  0.00000000E+00
  0.00000000E+00  0.00000000E+00  0.00000000E+00
  0.00000000E+00  0.00000000E+00  0.00000000E+00
  0.00000000E+00  0.00000000E+00  0.00000000E+00
  0.00000000E+00  0.00000000E+00  0.00000000E+00
  0.00000000E+00  0.00000000E+00  0.00000000E+00
