MA-Pb-I                                 
   1.0000000000000000     
     6.2884187138843197    0.0009579558247489    0.0690993966769832
     0.0005978161223733    6.2287690412624563   -0.0003732067435118
     0.0697053521696059    0.0000445224912706    6.3737103126460282
   C    N    H    Pb   I 
     1     1     6     1     3
Direct
  0.6418031917323790  0.4470177672146214  0.3899325192803103 
  0.5061866471237055  0.5179420203797656  0.5657984465245891 
  0.5878325279256411  0.2895223858973716  0.3436075022759020 
  0.8093007122597142  0.4405323263181489  0.4447365520139588 
  0.6253119705178395  0.5593360363208926  0.2550254781017369 
  0.5171153777784937  0.4158237551431250  0.6985411272915319 
  0.3447362207390025  0.5271761630266542  0.5207224705233124 
  0.5482149834015851  0.6669145508905256  0.6183739294016646 
  0.6822582055065493  0.6878897513678220  0.2641045152444192 
  0.9094873486598019  0.9999820990246278  0.4751454839169895
  0.8992708791277906  0.4999580210910821  0.0236644354684188
  0.4323428768805755  0.9999948727175436  0.9224794036872126

  0.00000000E+00  0.00000000E+00  0.00000000E+00
  0.00000000E+00  0.00000000E+00  0.00000000E+00
  0.00000000E+00  0.00000000E+00  0.00000000E+00
  0.00000000E+00  0.00000000E+00  0.00000000E+00
  0.00000000E+00  0.00000000E+00  0.00000000E+00
  0.00000000E+00  0.00000000E+00  0.00000000E+00
  0.00000000E+00  0.00000000E+00  0.00000000E+00
  0.00000000E+00  0.00000000E+00  0.00000000E+00
  0.00000000E+00  0.00000000E+00  0.00000000E+00
  0.00000000E+00  0.00000000E+00  0.00000000E+00
  0.00000000E+00  0.00000000E+00  0.00000000E+00
  0.00000000E+00  0.00000000E+00  0.00000000E+00
