MA-Pb-I                                 
   1.00000000000000     
     5.8892445321787328   -0.0048008041779134    0.0656571269169357
    -0.0053334077729528    5.8544884580747532    0.0012821621476484
     0.0639774282558244    0.0006908469467942    6.0230320529523143
   C    N    H    Pb   Br
     1     1     6     1     3
Direct
  0.0327040333962774  0.8462703729514494  0.5596784523773902 
  0.1360084377182624  0.2756158644858195  0.6632714737561900 
  0.1704172869806380  0.8727325354390126  0.4423691670459405 
  0.5492891206569805  0.8222662306036297  0.9292561138392194 
  0.7829819243824619  0.1859552304798837  0.0661575090508813 
  0.8394349103412553  0.0372982055526574  0.3917400279668263 
  0.0805121230851478  0.3835584479961109  0.5323801500134572 
  0.9983132029365702  0.2461817773806591  0.7636907412802838 
  0.4574564326607681  0.5399940737809811  0.5463296972672248 
  0.4352272726238539  0.4972012503325617  0.9832769846011953
  0.4159970891092727  0.9985715009710078  0.5336351900357424
  0.9598885390497535  0.4995712578389358  0.4264000332832606
 
  0.00000000E+00  0.00000000E+00  0.00000000E+00
  0.00000000E+00  0.00000000E+00  0.00000000E+00
  0.00000000E+00  0.00000000E+00  0.00000000E+00
  0.00000000E+00  0.00000000E+00  0.00000000E+00
  0.00000000E+00  0.00000000E+00  0.00000000E+00
  0.00000000E+00  0.00000000E+00  0.00000000E+00
  0.00000000E+00  0.00000000E+00  0.00000000E+00
  0.00000000E+00  0.00000000E+00  0.00000000E+00
  0.00000000E+00  0.00000000E+00  0.00000000E+00
  0.00000000E+00  0.00000000E+00  0.00000000E+00
  0.00000000E+00  0.00000000E+00  0.00000000E+00
  0.00000000E+00  0.00000000E+00  0.00000000E+00
