MA-Pb-I                                 
   1.00000000000000     
     6.2884187138843197    0.0009579558247489    0.0690993966769832
     0.0005978161223733    6.2287690412624563   -0.0003732067435118
     0.0697053521696059    0.0000445224912706    6.3737103126460282
   C    N    H    Pb   I 
     1     1     6     1     3
Direct
  0.4102680249662967  0.5672458837054055  0.5303042681214857
  0.6166992891977986  0.5578463702972193  0.6361806176547176
  0.2985802698510876  0.6063008727726273  0.6618465331383815
  0.3633766285199701  0.4080391442827045  0.4634115057838762
  0.4028164236014757  0.6974220308400175  0.4064355546549195
  0.6120125285536290  0.4293595042211107  0.7438053402709836
  0.6292052911542554  0.7048270369710181  0.7149956006113560
  0.7504615863912814  0.5381961485256662  0.5277637541543090
  0.7022724422764937  0.0800655624686999  0.3086842956700224
  0.1954609001328373  0.0688479125771852  0.3143352445893448
  0.8276003464991817  0.5557458300638299  0.1908767822133464
  0.6521107376473771  0.0655096582398001  0.8427090105932178
 
  0.00000000E+00  0.00000000E+00  0.00000000E+00
  0.00000000E+00  0.00000000E+00  0.00000000E+00
  0.00000000E+00  0.00000000E+00  0.00000000E+00
  0.00000000E+00  0.00000000E+00  0.00000000E+00
  0.00000000E+00  0.00000000E+00  0.00000000E+00
  0.00000000E+00  0.00000000E+00  0.00000000E+00
  0.00000000E+00  0.00000000E+00  0.00000000E+00
  0.00000000E+00  0.00000000E+00  0.00000000E+00
  0.00000000E+00  0.00000000E+00  0.00000000E+00
  0.00000000E+00  0.00000000E+00  0.00000000E+00
  0.00000000E+00  0.00000000E+00  0.00000000E+00
  0.00000000E+00  0.00000000E+00  0.00000000E+00
