MA-Pb-I                                 
   1.00000000000000     
     5.8892445321787328   -0.0048008041779134    0.0656571269169357
    -0.0053334077729528    5.8544884580747532    0.0012821621476484
     0.0639774282558244    0.0006908469467942    6.0230320529523143
   C    N    H    Pb   Br
     1     1     6     1     3
Direct
  0.5131316453004384  0.1427506664612717  0.9581609775513832
  0.7757492137096876  0.5159175389259530  0.6345215527591025
  0.6378592615066778  0.1582497780428659  0.8165107724106196
  0.5932265300062168  0.0979484584127394  0.1157257790978874
  0.9356006790882592  0.2535491170313203  0.0474638607351523
  0.3687605186416868  0.0273924239376868  0.9154709835883688
  0.7569109729832260  0.5948202255300307  0.7863549521548432
  0.8281142131439291  0.6478949354771812  0.5310083895090756
  0.3837598097966275  0.4636198154652241  0.5217959632268789
  0.3842892861322455  0.4479988871163814  0.0057385600297072
  0.3651030558206881 -0.0584499765584359  0.4926063077272508
 -0.1040625232356003  0.3015857659096198  0.2828098088215147
 
  0.00000000E+00  0.00000000E+00  0.00000000E+00
  0.00000000E+00  0.00000000E+00  0.00000000E+00
  0.00000000E+00  0.00000000E+00  0.00000000E+00
  0.00000000E+00  0.00000000E+00  0.00000000E+00
  0.00000000E+00  0.00000000E+00  0.00000000E+00
  0.00000000E+00  0.00000000E+00  0.00000000E+00
  0.00000000E+00  0.00000000E+00  0.00000000E+00
  0.00000000E+00  0.00000000E+00  0.00000000E+00
  0.00000000E+00  0.00000000E+00  0.00000000E+00
  0.00000000E+00  0.00000000E+00  0.00000000E+00
  0.00000000E+00  0.00000000E+00  0.00000000E+00
  0.00000000E+00  0.00000000E+00  0.00000000E+00
