MA-Pb-I                                 
   1.00000000000000     
     5.8892445321787328   -0.0048008041779134    0.0656571269169357
    -0.0053334077729528    5.8544884580747532    0.0012821621476484
     0.0639774282558244    0.0006908469467942    6.0230320529523143
   C    N    H    Pb   Br
     1     1     6     1     3
Direct
  0.5219433139177976  0.1271574495894270  0.9169020745428745 
  0.7925827078560087  0.5997506510510550  0.6929335487475321 
  0.3907750207788040  0.0006222547505117  0.9023976606159057 
  0.3950971548303744  0.8820857310217416  0.1417728352254901 
  0.9285879634907834  0.3827589396927337  0.0420656643839096 
  0.3427026653617238  0.9377269591653504  0.7235576507309935 
  0.8625665740438879  0.4518641205798872  0.6215485819656097 
  0.9187838452863685  0.7180026459512698  0.6932668185751549 
  0.4742905165454592  0.4979648748073606  0.4304108649041098 
  0.4352272726238539  0.4972012503325617  0.9832769846011953
  0.4159970891092727  0.9985715009710078  0.5336351900357424
  0.9598885390497535  0.4995712578389358  0.4264000332832606
 
  0.00000000E+00  0.00000000E+00  0.00000000E+00
  0.00000000E+00  0.00000000E+00  0.00000000E+00
  0.00000000E+00  0.00000000E+00  0.00000000E+00
  0.00000000E+00  0.00000000E+00  0.00000000E+00
  0.00000000E+00  0.00000000E+00  0.00000000E+00
  0.00000000E+00  0.00000000E+00  0.00000000E+00
  0.00000000E+00  0.00000000E+00  0.00000000E+00
  0.00000000E+00  0.00000000E+00  0.00000000E+00
  0.00000000E+00  0.00000000E+00  0.00000000E+00
  0.00000000E+00  0.00000000E+00  0.00000000E+00
  0.00000000E+00  0.00000000E+00  0.00000000E+00
  0.00000000E+00  0.00000000E+00  0.00000000E+00
