MA-Pb-I                                 
   1.00000000000000     
     5.8857348584972646   -0.0000116429338373    0.0677019167604032
    -0.0000113721705701    5.8535748976198549   -0.0000048572736550
     0.0678468051824150   -0.0000044748208102    6.0066012361495211
   C    N    H    Pb   Br
     1     1     6     1     3
Direct
 -0.0341948938842566  0.1342906025690676  0.8694693727850732
  0.0496035970521208 -0.0191635265105392  0.6893784333828417
  0.8647800126645208  0.0419385826238825  0.9938928203077181
 -0.0562609407142888 -0.0096387236034585  0.5545680369358023
  0.1127339859152538  0.2285225010904241 -0.0700048414334267
  0.8445170285032430  0.2614026721803291  0.8025495360199857
  0.0589856900436061  0.8116976758010374  0.7357672340790410
  0.2140454339792509  0.0262693937800969  0.6329707861529119
  0.4803891058275006  0.4822818788628501  0.3635180781663961
  0.4403048545694667  0.4776385495839997 -0.1452149312864220
  0.5092980355826511  0.9861593225634826  0.3750437020936810
 -0.0167124136605290  0.4816658558184781  0.3605451472511698
 
  0.00000000E+00  0.00000000E+00  0.00000000E+00
  0.00000000E+00  0.00000000E+00  0.00000000E+00
  0.00000000E+00  0.00000000E+00  0.00000000E+00
  0.00000000E+00  0.00000000E+00  0.00000000E+00
  0.00000000E+00  0.00000000E+00  0.00000000E+00
  0.00000000E+00  0.00000000E+00  0.00000000E+00
  0.00000000E+00  0.00000000E+00  0.00000000E+00
  0.00000000E+00  0.00000000E+00  0.00000000E+00
  0.00000000E+00  0.00000000E+00  0.00000000E+00
  0.00000000E+00  0.00000000E+00  0.00000000E+00
  0.00000000E+00  0.00000000E+00  0.00000000E+00
  0.00000000E+00  0.00000000E+00  0.00000000E+00
