MA-Pb-I                                 
   1.0000000000000000     
     5.8857348584972646   -0.0000116429338373    0.0677019167604032
    -0.0000113721705701    5.8535748976198549   -0.0000048572736550
     0.0678468051824150   -0.0000044748208102    6.0066012361495211
   C    N    H    Pb   Br
     1     1     6     1     3
Direct
  0.0262377235727593  0.7021348705485324  0.9702288293468889 
  0.0594764718766478  0.0833546038396025  0.5502026677738712 
  0.8462121336902222  0.7042985155544149  0.9360278886363417 
  0.0050687360964486  0.0274254375441046  0.3066725292273090 
  0.0695204258479307  0.6471985648496239  0.0067180149677104 
  0.9377453174792111  0.2784258515633058  0.8329812817409096 
  0.0039852271546289  0.9154086393480741  0.5246969294853822 
  0.2314610168802955  0.0753945568244614  0.5706995896709285 
  0.4706169105946587  0.4695978655481383  0.5231404420825646 
  0.4343825501137815  0.4999407920523851  0.9818407606070920
  0.4217797225331665  0.9999416700962840  0.5296464633737443
  0.9610032600387797  0.4999434169907246  0.4296279775420402

  0.00000000E+00  0.00000000E+00  0.00000000E+00
  0.00000000E+00  0.00000000E+00  0.00000000E+00
  0.00000000E+00  0.00000000E+00  0.00000000E+00
  0.00000000E+00  0.00000000E+00  0.00000000E+00
  0.00000000E+00  0.00000000E+00  0.00000000E+00
  0.00000000E+00  0.00000000E+00  0.00000000E+00
  0.00000000E+00  0.00000000E+00  0.00000000E+00
  0.00000000E+00  0.00000000E+00  0.00000000E+00
  0.00000000E+00  0.00000000E+00  0.00000000E+00
  0.00000000E+00  0.00000000E+00  0.00000000E+00
  0.00000000E+00  0.00000000E+00  0.00000000E+00
  0.00000000E+00  0.00000000E+00  0.00000000E+00
