MA-Pb-I                                 
   1.00000000000000     
     5.8892445321787328   -0.0048008041779134    0.0656571269169357
    -0.0053334077729528    5.8544884580747532    0.0012821621476484
     0.0639774282558244    0.0006908469467942    6.0230320529523143
   C    N    H    Pb   Br
     1     1     6     1     3
Direct
  0.8918756867781774  0.5958940769662390  0.2651221700834204
  0.7360771492951022  0.1355594801366063  0.4993803203060934
  0.8733063682789318  0.7859225300796666  0.2356021167285079
  0.4055017374656225  0.1458122912700931 -0.0650326634102847
  0.4527721870877587  0.0173857764915566  0.9356332687757953
  0.2033418771317319  0.6019781434039233  0.7702406695488918
  0.7730662711540660  0.0046378635814003  0.6130351600261821
  0.7970522376719880  0.0807579874841163  0.3531380472956259
  0.4480623393749108  0.5985643110553204  0.3790635567852564
  0.4303387206468638  0.5820911885478121  0.9170160221066243
  0.4143599159666967  0.1003855980120428  0.4407100713263438
 -0.0643453153267251  0.6007784278456358  0.6057960487198739
 
  0.00000000E+00  0.00000000E+00  0.00000000E+00
  0.00000000E+00  0.00000000E+00  0.00000000E+00
  0.00000000E+00  0.00000000E+00  0.00000000E+00
  0.00000000E+00  0.00000000E+00  0.00000000E+00
  0.00000000E+00  0.00000000E+00  0.00000000E+00
  0.00000000E+00  0.00000000E+00  0.00000000E+00
  0.00000000E+00  0.00000000E+00  0.00000000E+00
  0.00000000E+00  0.00000000E+00  0.00000000E+00
  0.00000000E+00  0.00000000E+00  0.00000000E+00
  0.00000000E+00  0.00000000E+00  0.00000000E+00
  0.00000000E+00  0.00000000E+00  0.00000000E+00
  0.00000000E+00  0.00000000E+00  0.00000000E+00
