MA-Pb-I                                 
   1.0000000000000000     
     5.8857348584972646   -0.0000116429338373    0.0677019167604032
    -0.0000113721705701    5.8535748976198549   -0.0000048572736550
     0.0678468051824150   -0.0000044748208102    6.0066012361495211
   C    N    H    Pb   Br
     1     1     6     1     3
Direct
  0.7367930232977236  0.2016218152946859  0.5837149368999044 
  0.8208560615197960  0.9568606474335523  0.1580099264064180 
  0.8184466091415412  0.2143600009930503  0.4201483472132768 
  0.5404877246980664  0.9933385559980970  0.0019308596094033 
  0.3355559762623538  0.3506545465345471  0.8495966785155507 
  0.0255456053859626  0.7876745463828266  0.2606888953031417 
  0.8149236235907756  0.1271447779227870  0.1041231098445427 
  0.7325558434503490  0.9496846222332473  0.3070526921720256 
  0.4816742578324738  0.5248388354961133  0.4878926936728637 
  0.4343825501137815  0.4999407920523851  0.9818407606070920
  0.4217797225331665  0.9999416700962840  0.5296464633737443
  0.9610032600387797  0.4999434169907246  0.4296279775420402

  0.00000000E+00  0.00000000E+00  0.00000000E+00
  0.00000000E+00  0.00000000E+00  0.00000000E+00
  0.00000000E+00  0.00000000E+00  0.00000000E+00
  0.00000000E+00  0.00000000E+00  0.00000000E+00
  0.00000000E+00  0.00000000E+00  0.00000000E+00
  0.00000000E+00  0.00000000E+00  0.00000000E+00
  0.00000000E+00  0.00000000E+00  0.00000000E+00
  0.00000000E+00  0.00000000E+00  0.00000000E+00
  0.00000000E+00  0.00000000E+00  0.00000000E+00
  0.00000000E+00  0.00000000E+00  0.00000000E+00
  0.00000000E+00  0.00000000E+00  0.00000000E+00
  0.00000000E+00  0.00000000E+00  0.00000000E+00
