MA-Pb-I                                 
   1.00000000000000     
     5.8892445321787328   -0.0048008041779134    0.0656571269169357
    -0.0053334077729528    5.8544884580747532    0.0012821621476484
     0.0639774282558244    0.0006908469467942    6.0230320529523143
   C    N    H    Pb   Br
     1     1     6     1     3
Direct
  0.1286997740296357  0.8238101291503281  0.9585921475380023 
  0.2257034705666205  0.2247593408200408  0.7391102730672523 
  0.2537210148017268  0.7883313267108378  0.8299935526212983 
  0.5572269264970822  0.3726885997064129  0.8946573301640927 
  0.8189850307417561  0.8715926036517947  0.2929430379201229 
  0.8852140413133696  0.7740366792375510  0.1697189085787028 
  0.1551192875360765  0.2591869588368011  0.5788087037441123 
  0.0991424600631476  0.2496274738814484  0.8543242437207927 
  0.5325926978485268  0.4183217396591117  0.5774467499587664 
  0.4352272726238539  0.4972012503325617  0.9832769846011953
  0.4159970891092727  0.9985715009710078  0.5336351900357424
  0.9598885390497535  0.4995712578389358  0.4264000332832606
 
  0.00000000E+00  0.00000000E+00  0.00000000E+00
  0.00000000E+00  0.00000000E+00  0.00000000E+00
  0.00000000E+00  0.00000000E+00  0.00000000E+00
  0.00000000E+00  0.00000000E+00  0.00000000E+00
  0.00000000E+00  0.00000000E+00  0.00000000E+00
  0.00000000E+00  0.00000000E+00  0.00000000E+00
  0.00000000E+00  0.00000000E+00  0.00000000E+00
  0.00000000E+00  0.00000000E+00  0.00000000E+00
  0.00000000E+00  0.00000000E+00  0.00000000E+00
  0.00000000E+00  0.00000000E+00  0.00000000E+00
  0.00000000E+00  0.00000000E+00  0.00000000E+00
  0.00000000E+00  0.00000000E+00  0.00000000E+00
