MA-Pb-I                                 
   1.0000000000000000     
     6.2884187138843197    0.0009579558247489    0.0690993966769832
     0.0005978161223733    6.2287690412624563   -0.0003732067435118
     0.0697053521696059    0.0000445224912706    6.3737103126460282
   C    N    H    Pb   I 
     1     1     6     1     3
Direct
  0.3254963730249557  0.4647989307008085  0.5643363870515173 
  0.5418106143027004  0.5108820822074897  0.6380616431837661 
  0.3392248822147979  0.3787831645559602  0.4150834108721332 
  0.2389977817913399  0.6164945589183666  0.5396910543376393 
  0.2431202604252895  0.3656167689652339  0.6846041656880182 
  0.6265035347976553  0.6057743954482128  0.5285593388622587 
  0.6303116990790989  0.3706737140328135  0.6643775066483829 
  0.5413855917944735  0.5926672068354384  0.7796045343591337 
  0.8768892966066795  0.1602729071200450  0.7543742552906036 
  0.9094873486598019  0.9999820990246278  0.4751454839169895
  0.8992708791277906  0.4999580210910821  0.0236644354684188
  0.4323428768805755  0.9999948727175436  0.9224794036872126

  0.00000000E+00  0.00000000E+00  0.00000000E+00
  0.00000000E+00  0.00000000E+00  0.00000000E+00
  0.00000000E+00  0.00000000E+00  0.00000000E+00
  0.00000000E+00  0.00000000E+00  0.00000000E+00
  0.00000000E+00  0.00000000E+00  0.00000000E+00
  0.00000000E+00  0.00000000E+00  0.00000000E+00
  0.00000000E+00  0.00000000E+00  0.00000000E+00
  0.00000000E+00  0.00000000E+00  0.00000000E+00
  0.00000000E+00  0.00000000E+00  0.00000000E+00
  0.00000000E+00  0.00000000E+00  0.00000000E+00
  0.00000000E+00  0.00000000E+00  0.00000000E+00
  0.00000000E+00  0.00000000E+00  0.00000000E+00
