MA-Pb-I                                 
   1.00000000000000     
     5.6267413476480952    0.0000416704727542    0.0620815770375229
    -0.0000317550626923    5.5940171136319288    0.0000254647194750
     0.0578866146782483   -0.0000342937909938    5.7648243532177101
   C    N    H    Pb   Cl
     1     1     6     1     3
Direct
  0.0273790386636786  0.4442608891515740 -0.0499386705333438
  0.4271335853714897  0.4084441765942889  0.5306857060580150
  0.7575832088025928 -0.0656943854277677  0.4687956838391373
  0.5562474046908571  0.5273849771537223  0.5827468715842770
  0.4949718908626447  0.8859276653481548  0.4625221078383647
  0.4868546320935316  0.0307524438887132  0.4912153073667984
  0.3551140080824707  0.4769162453446845  0.3829096542849858
  0.2971423075291146  0.4213349347212376  0.6618218427685775
  0.0282386230313577  0.9363021754435316 -0.0454971989510616
  0.0076123842069399 -0.0677858559265671  0.4600590683117272
  0.7845693266516380  0.4262067267106794  0.1350804635239527
  0.5103475902405999 -0.0733087348588219  0.9603992080768199
 
  0.00000000E+00  0.00000000E+00  0.00000000E+00
  0.00000000E+00  0.00000000E+00  0.00000000E+00
  0.00000000E+00  0.00000000E+00  0.00000000E+00
  0.00000000E+00  0.00000000E+00  0.00000000E+00
  0.00000000E+00  0.00000000E+00  0.00000000E+00
  0.00000000E+00  0.00000000E+00  0.00000000E+00
  0.00000000E+00  0.00000000E+00  0.00000000E+00
  0.00000000E+00  0.00000000E+00  0.00000000E+00
  0.00000000E+00  0.00000000E+00  0.00000000E+00
  0.00000000E+00  0.00000000E+00  0.00000000E+00
  0.00000000E+00  0.00000000E+00  0.00000000E+00
  0.00000000E+00  0.00000000E+00  0.00000000E+00
