MA-Pb-I                                 
   1.0000000000000000     
     5.6267413476480952    0.0000416704727542    0.0620815770375229
    -0.0000317550626923    5.5940171136319288    0.0000254647194750
     0.0578866146782483   -0.0000342937909938    5.7648243532177101
   C    N    H    Pb   Cl
     1     1     6     1     3
Direct
  0.5874186670634381  0.4795823676257986  0.5152204051349993 
  0.3656929978381240  0.3472618994604555  0.5427203507617617 
  0.6966300785319340  0.3815883059115802  0.3930835264882821 
  0.6774631474155335  0.4936783453582357  0.6890436260515400 
  0.5489567527471960  0.6577692689416719  0.4424802050349759 
  0.3946149679015628  0.1762767900242942  0.6123341060564008 
  0.2739474409999578  0.3303567866720574  0.3808079528463644 
  0.2524343504937634  0.4297390987333968  0.6566373711773470 
  0.6729395483176840  0.5544102373163102  0.3869345645940868 
  0.9135858188955126  0.0000223702692494  0.4744099460480626
  0.9004629834686284  0.5000248740275239  0.0232973215355017
  0.4490472465535831  0.0000309138028598  0.9238306684389244

  0.00000000E+00  0.00000000E+00  0.00000000E+00
  0.00000000E+00  0.00000000E+00  0.00000000E+00
  0.00000000E+00  0.00000000E+00  0.00000000E+00
  0.00000000E+00  0.00000000E+00  0.00000000E+00
  0.00000000E+00  0.00000000E+00  0.00000000E+00
  0.00000000E+00  0.00000000E+00  0.00000000E+00
  0.00000000E+00  0.00000000E+00  0.00000000E+00
  0.00000000E+00  0.00000000E+00  0.00000000E+00
  0.00000000E+00  0.00000000E+00  0.00000000E+00
  0.00000000E+00  0.00000000E+00  0.00000000E+00
  0.00000000E+00  0.00000000E+00  0.00000000E+00
  0.00000000E+00  0.00000000E+00  0.00000000E+00
