MA-Pb-I                                 
   1.00000000000000     
     5.8892445321787328   -0.0048008041779134    0.0656571269169357
    -0.0053334077729528    5.8544884580747532    0.0012821621476484
     0.0639774282558244    0.0006908469467942    6.0230320529523143
   C    N    H    Pb   Br
     1     1     6     1     3
Direct
  0.4665066328899476  0.5938552792946735  0.2169656713513064
  0.8382859527808010  0.9765870063657806  0.0679640360420540
  0.6121319633473280  0.6546079694481416  0.0824406757226903
  0.8408953340738322  0.8544364161068261 -0.0332686475447027
  0.3012215507189342 -0.3325474086141578  0.1934563815862813
  0.6528158420025197  0.0895696527449071  0.0904151715435119
 -0.0177959253027384  0.0762618981428092  0.0157553116620040
  0.8908479697566778  0.9196164319312295  0.2316808027140009
  0.5405329054433043  0.5818508791478736  0.6134345326640642
  0.3672318171104717  0.2646069481088995  0.1101099916962866
  0.5393619517438408  0.0505282565806452  0.6526819252748292
  0.0350643886103547  0.5694103478004550  0.6465830317577520
 
  0.00000000E+00  0.00000000E+00  0.00000000E+00
  0.00000000E+00  0.00000000E+00  0.00000000E+00
  0.00000000E+00  0.00000000E+00  0.00000000E+00
  0.00000000E+00  0.00000000E+00  0.00000000E+00
  0.00000000E+00  0.00000000E+00  0.00000000E+00
  0.00000000E+00  0.00000000E+00  0.00000000E+00
  0.00000000E+00  0.00000000E+00  0.00000000E+00
  0.00000000E+00  0.00000000E+00  0.00000000E+00
  0.00000000E+00  0.00000000E+00  0.00000000E+00
  0.00000000E+00  0.00000000E+00  0.00000000E+00
  0.00000000E+00  0.00000000E+00  0.00000000E+00
  0.00000000E+00  0.00000000E+00  0.00000000E+00
