MA-Pb-I                                 
   1.00000000000000     
     6.2884187138843197    0.0009579558247489    0.0690993966769832
     0.0005978161223733    6.2287690412624563   -0.0003732067435118
     0.0697053521696059    0.0000445224912706    6.3737103126460282
   C    N    H    Pb   I 
     1     1     6     1     3
Direct
  0.3753209316362860  0.5450942848867647  0.5668030745569341
  0.5032063694768610  0.6105226637592800  0.3758758621551241
  0.2347930915584604  0.6612444358585718  0.5823051833909495
  0.4836039440123320  0.5387188371890229  0.7006241874954183
  0.3111316664541904  0.3845398612313798  0.5416731822919494
  0.5889020413163570  0.7611797005801780  0.4021355362039638
  0.4046167782848099  0.6379080593762825  0.2472632024542600
  0.6307295743417644  0.5123547711873137  0.3260966593629953
  0.2352905457881411  0.0787009047359896  0.3724917273062500
  0.7556752670291970  0.0980237023199387  0.4369473443824962
  0.0237588267663280  0.5238459733032401  0.1502412332360706
  0.2840742803099640  0.0465005726003034  0.8891078841026295
 
  0.00000000E+00  0.00000000E+00  0.00000000E+00
  0.00000000E+00  0.00000000E+00  0.00000000E+00
  0.00000000E+00  0.00000000E+00  0.00000000E+00
  0.00000000E+00  0.00000000E+00  0.00000000E+00
  0.00000000E+00  0.00000000E+00  0.00000000E+00
  0.00000000E+00  0.00000000E+00  0.00000000E+00
  0.00000000E+00  0.00000000E+00  0.00000000E+00
  0.00000000E+00  0.00000000E+00  0.00000000E+00
  0.00000000E+00  0.00000000E+00  0.00000000E+00
  0.00000000E+00  0.00000000E+00  0.00000000E+00
  0.00000000E+00  0.00000000E+00  0.00000000E+00
  0.00000000E+00  0.00000000E+00  0.00000000E+00
