MA-Pb-I                                 
   1.00000000000000     
     5.8892445321787328   -0.0048008041779134    0.0656571269169357
    -0.0053334077729528    5.8544884580747532    0.0012821621476484
     0.0639774282558244    0.0006908469467942    6.0230320529523143
   C    N    H    Pb   Br
     1     1     6     1     3
Direct
  0.5929369878809390  0.1918973557426196  0.8494839637844034 
  0.2348622391643287  0.2223676918728715  0.6039358495237970 
  0.6268334555049114  0.0358792795693699  0.9385684409456866 
  0.1935170811487901  0.9854417580038435  0.8071871524015788 
  0.7465468747458313  0.2782648004919076  0.1015656852203048 
  0.5110742768180715  0.8403171418570243  0.3355824730188540 
  0.0799681568242772  0.1404933469948640  0.6381176547817002 
  0.1947103882656305  0.3734946055464389  0.5300517694504427 
  0.5509384625124992  0.4687287806933818  0.4792020455589979 
  0.4352272726238539  0.4972012503325617  0.9832769846011953
  0.4159970891092727  0.9985715009710078  0.5336351900357424
  0.9598885390497535  0.4995712578389358  0.4264000332832606
 
  0.00000000E+00  0.00000000E+00  0.00000000E+00
  0.00000000E+00  0.00000000E+00  0.00000000E+00
  0.00000000E+00  0.00000000E+00  0.00000000E+00
  0.00000000E+00  0.00000000E+00  0.00000000E+00
  0.00000000E+00  0.00000000E+00  0.00000000E+00
  0.00000000E+00  0.00000000E+00  0.00000000E+00
  0.00000000E+00  0.00000000E+00  0.00000000E+00
  0.00000000E+00  0.00000000E+00  0.00000000E+00
  0.00000000E+00  0.00000000E+00  0.00000000E+00
  0.00000000E+00  0.00000000E+00  0.00000000E+00
  0.00000000E+00  0.00000000E+00  0.00000000E+00
  0.00000000E+00  0.00000000E+00  0.00000000E+00
