MA-Pb-I                                 
   1.00000000000000     
     6.2884187138843197    0.0009579558247489    0.0690993966769832
     0.0005978161223733    6.2287690412624563   -0.0003732067435118
     0.0697053521696059    0.0000445224912706    6.3737103126460282
   C    N    H    Pb   I 
     1     1     6     1     3
Direct
  0.3159954436815128  0.4248092323423590  0.4760674916242780
  0.5112195410628153  0.2911037454400436  0.4798813212459578
  0.2939546183608155  0.5001265768320642  0.6317409349284701
  0.1797389580768653  0.3213853042693190  0.4397328487188447
  0.3356931809768951  0.5499072842615059  0.3538322617212240
  0.5152559905499313  0.1850321684070286  0.6058530307295988
  0.6441968144689280  0.3936405897241972  0.4881944904963619
  0.5328391542679487  0.2016096478652900  0.3421336881389514
  0.8222447257372901  0.7962870671140424  0.0079450869615207
  0.8170909494350156  0.7875979270331609  0.5060522735707637
  0.3266744472900666  0.8123935167040892  0.0095223498920216
  0.8223454330882731  0.2958877498412794  0.0062933132838948
 
  0.00000000E+00  0.00000000E+00  0.00000000E+00
  0.00000000E+00  0.00000000E+00  0.00000000E+00
  0.00000000E+00  0.00000000E+00  0.00000000E+00
  0.00000000E+00  0.00000000E+00  0.00000000E+00
  0.00000000E+00  0.00000000E+00  0.00000000E+00
  0.00000000E+00  0.00000000E+00  0.00000000E+00
  0.00000000E+00  0.00000000E+00  0.00000000E+00
  0.00000000E+00  0.00000000E+00  0.00000000E+00
  0.00000000E+00  0.00000000E+00  0.00000000E+00
  0.00000000E+00  0.00000000E+00  0.00000000E+00
  0.00000000E+00  0.00000000E+00  0.00000000E+00
  0.00000000E+00  0.00000000E+00  0.00000000E+00
