MA-Pb-I                                 
   1.0000000000000000     
     6.2884187138843197    0.0009579558247489    0.0690993966769832
     0.0005978161223733    6.2287690412624563   -0.0003732067435118
     0.0697053521696059    0.0000445224912706    6.3737103126460282
   C    N    H    Pb   I 
     1     1     6     1     3
Direct
  0.6027379736138546  0.6315306353741890  0.5350257705806365 
  0.5659593398759803  0.4026665571595257  0.5101362742529169 
  0.5296340954615725  0.6794915238381272  0.6840868690111479 
  0.5283193380571900  0.7173127030399427  0.4001025854745551 
  0.7763012901758266  0.6622408973707267  0.5394888036127381 
  0.4023465070528472  0.3656933224460742  0.5044778825844499 
  0.6347651522853998  0.3141282805926510  0.6350766077883312 
  0.6311666958712772  0.3456004631677964  0.3715186745858713 
  0.1950770368277934  0.0342892739349934  0.9864385703816075 
  0.9094873486598019  0.9999820990246278  0.4751454839169895
  0.8992708791277906  0.4999580210910821  0.0236644354684188
  0.4323428768805755  0.9999948727175436  0.9224794036872126

  0.00000000E+00  0.00000000E+00  0.00000000E+00
  0.00000000E+00  0.00000000E+00  0.00000000E+00
  0.00000000E+00  0.00000000E+00  0.00000000E+00
  0.00000000E+00  0.00000000E+00  0.00000000E+00
  0.00000000E+00  0.00000000E+00  0.00000000E+00
  0.00000000E+00  0.00000000E+00  0.00000000E+00
  0.00000000E+00  0.00000000E+00  0.00000000E+00
  0.00000000E+00  0.00000000E+00  0.00000000E+00
  0.00000000E+00  0.00000000E+00  0.00000000E+00
  0.00000000E+00  0.00000000E+00  0.00000000E+00
  0.00000000E+00  0.00000000E+00  0.00000000E+00
  0.00000000E+00  0.00000000E+00  0.00000000E+00
