MA-Pb-I                                 
   1.0000000000000000     
     5.8857348584972646   -0.0000116429338373    0.0677019167604032
    -0.0000113721705701    5.8535748976198549   -0.0000048572736550
     0.0678468051824150   -0.0000044748208102    6.0066012361495211
   C    N    H    Pb   Br
     1     1     6     1     3
Direct
  0.1808893658004640  0.7832153081634106  0.3722063566703543 
  0.5631852248409865  0.0242886948761482  0.0495522402314150 
  0.0928363804419425  0.7937403523843501  0.5325793404654828 
  0.9814129477741589  0.8969565106865354  0.7716216100159843 
  0.5622632611852454  0.7192259507168272  0.1021820760879160 
  0.8394103166285929  0.3322742969544532  0.6974339847209514 
  0.4363890314167937  0.1496090594900314  0.0371748632230340 
  0.6496150751380156  0.0272360641896692  0.8992746175871507 
  0.4298750555623747  0.4793717493001175  0.4824596811638139 
  0.4343825501137815  0.4999407920523851  0.9818407606070920
  0.4217797225331665  0.9999416700962840  0.5296464633737443
  0.9610032600387797  0.4999434169907246  0.4296279775420402

  0.00000000E+00  0.00000000E+00  0.00000000E+00
  0.00000000E+00  0.00000000E+00  0.00000000E+00
  0.00000000E+00  0.00000000E+00  0.00000000E+00
  0.00000000E+00  0.00000000E+00  0.00000000E+00
  0.00000000E+00  0.00000000E+00  0.00000000E+00
  0.00000000E+00  0.00000000E+00  0.00000000E+00
  0.00000000E+00  0.00000000E+00  0.00000000E+00
  0.00000000E+00  0.00000000E+00  0.00000000E+00
  0.00000000E+00  0.00000000E+00  0.00000000E+00
  0.00000000E+00  0.00000000E+00  0.00000000E+00
  0.00000000E+00  0.00000000E+00  0.00000000E+00
  0.00000000E+00  0.00000000E+00  0.00000000E+00
