MA-Pb-I                                 
   1.00000000000000     
     5.6267413476480952    0.0000416704727542    0.0620815770375229
    -0.0000317550626923    5.5940171136319288    0.0000254647194750
     0.0578866146782483   -0.0000342937909938    5.7648243532177101
   C    N    H    Pb   Cl
     1     1     6     1     3
Direct
  0.3405074103493262  0.5849941863401532  0.4428136877203332
  0.4580802027193083  0.4517339228149295  0.3019256464901771
  0.2906059191090152  0.5157523309887094  0.6143610703003157
  0.2933992080321610  0.7651858448026690  0.3842469639135334
  0.9332796946422579  0.3837264843450545  0.4475427995553624
  0.5075708949702271  0.5158930946249524  0.1388595693097042
  0.4999438010403220  0.2764440630496553  0.3371968522515270
  0.8884732719252362  0.5168659883433794  0.4798117360296698
 -0.0961082985728421 -0.0327885400510596 -0.0154157276078792
  0.8905053414626866 -0.0364145675976789  0.4754029083398167
  0.9138119994172488  0.4701622541719100 -0.0253376712055180
  0.4041617434292131 -0.0308275367027606  0.0075664481089712
 
  0.00000000E+00  0.00000000E+00  0.00000000E+00
  0.00000000E+00  0.00000000E+00  0.00000000E+00
  0.00000000E+00  0.00000000E+00  0.00000000E+00
  0.00000000E+00  0.00000000E+00  0.00000000E+00
  0.00000000E+00  0.00000000E+00  0.00000000E+00
  0.00000000E+00  0.00000000E+00  0.00000000E+00
  0.00000000E+00  0.00000000E+00  0.00000000E+00
  0.00000000E+00  0.00000000E+00  0.00000000E+00
  0.00000000E+00  0.00000000E+00  0.00000000E+00
  0.00000000E+00  0.00000000E+00  0.00000000E+00
  0.00000000E+00  0.00000000E+00  0.00000000E+00
  0.00000000E+00  0.00000000E+00  0.00000000E+00
