MA-Pb-I                                 
   1.0000000000000000     
     5.6267413476480952    0.0000416704727542    0.0620815770375229
    -0.0000317550626923    5.5940171136319288    0.0000254647194750
     0.0578866146782483   -0.0000342937909938    5.7648243532177101
   C    N    H    Pb   Cl
     1     1     6     1     3
Direct
  0.3565806817739684  0.4534898590245939  0.4872635482047881 
  0.5912375535060608  0.4234836452128093  0.3801981225064160 
  0.2530500277839597  0.3002959478895806  0.4397197270782440 
  0.2722929595361602  0.6158960745785844  0.4162634201112023 
  0.3743507123031410  0.4643193705155113  0.6824249559161347 
  0.5821187034782890  0.4129870918166773  0.1938513171449033 
  0.6779509740450146  0.2706531735869992  0.4437770834739769 
  0.7000189393942717  0.5626402201401626  0.4177368342221325 
  0.2535345877855719  0.3768839842653593  0.7062013385257355 
  0.9135858188955126  0.0000223702692494  0.4744099460480626
  0.9004629834686284  0.5000248740275239  0.0232973215355017
  0.4490472465535831  0.0000309138028598  0.9238306684389244

  0.00000000E+00  0.00000000E+00  0.00000000E+00
  0.00000000E+00  0.00000000E+00  0.00000000E+00
  0.00000000E+00  0.00000000E+00  0.00000000E+00
  0.00000000E+00  0.00000000E+00  0.00000000E+00
  0.00000000E+00  0.00000000E+00  0.00000000E+00
  0.00000000E+00  0.00000000E+00  0.00000000E+00
  0.00000000E+00  0.00000000E+00  0.00000000E+00
  0.00000000E+00  0.00000000E+00  0.00000000E+00
  0.00000000E+00  0.00000000E+00  0.00000000E+00
  0.00000000E+00  0.00000000E+00  0.00000000E+00
  0.00000000E+00  0.00000000E+00  0.00000000E+00
  0.00000000E+00  0.00000000E+00  0.00000000E+00
