MA-Pb-I                                 
   1.0000000000000000     
     6.2884187138843197    0.0009579558247489    0.0690993966769832
     0.0005978161223733    6.2287690412624563   -0.0003732067435118
     0.0697053521696059    0.0000445224912706    6.3737103126460282
   C    N    H    Pb   I 
     1     1     6     1     3
Direct
  0.4707473105794354  0.6324165964506691  0.4948555495362061 
  0.4424523780374144  0.4040641552799588  0.5323452898385815 
  0.6367899765208880  0.6693822474121858  0.5253023658642081 
  0.3668509295551355  0.7226762847205705  0.6051265475990296 
  0.4297257945390581  0.6692231852361501  0.3273748821281184 
  0.4792235835501393  0.3614414439266402  0.6904572105400040 
  0.5381175505363924  0.3113955857625794  0.4301490855204339 
  0.2880135061995693  0.3571478400426852  0.5064441020890987 
  0.0173621837998731  0.0515761176206219  0.0248544782000324 
  0.9094873486598019  0.9999820990246278  0.4751454839169895
  0.8992708791277906  0.4999580210910821  0.0236644354684188
  0.4323428768805755  0.9999948727175436  0.9224794036872126

  0.00000000E+00  0.00000000E+00  0.00000000E+00
  0.00000000E+00  0.00000000E+00  0.00000000E+00
  0.00000000E+00  0.00000000E+00  0.00000000E+00
  0.00000000E+00  0.00000000E+00  0.00000000E+00
  0.00000000E+00  0.00000000E+00  0.00000000E+00
  0.00000000E+00  0.00000000E+00  0.00000000E+00
  0.00000000E+00  0.00000000E+00  0.00000000E+00
  0.00000000E+00  0.00000000E+00  0.00000000E+00
  0.00000000E+00  0.00000000E+00  0.00000000E+00
  0.00000000E+00  0.00000000E+00  0.00000000E+00
  0.00000000E+00  0.00000000E+00  0.00000000E+00
  0.00000000E+00  0.00000000E+00  0.00000000E+00
