MA-Pb-I                                 
   1.00000000000000     
     5.8857348584972646   -0.0000116429338373    0.0677019167604032
    -0.0000113721705701    5.8535748976198549   -0.0000048572736550
     0.0678468051824150   -0.0000044748208102    6.0066012361495211
   C    N    H    Pb   Br
     1     1     6     1     3
Direct
  0.0663211881643037  0.9711381936380006  0.8577980252800989
  0.0348420391628327  0.6247308849080218  0.0690452855142395
 -0.0462437381736379  0.8105793877634574  0.9903400194933663
  0.5665587254569726  0.8380841452216039  0.4233796319172851
  0.9156187975539125  0.2207879588489042  0.5161261545713822
  0.7306365878620622  0.1651274137794805  0.9288878392555892
  0.1091840781508860  0.5100737198796501  0.9855385807005900
  0.1394360150090443  0.7623309453477893  0.9235406589919730
  0.4955536701892981  0.5514147499059110  0.4761249247320206
  0.4412139849053266  0.4978856500642000  0.9811204641375995
  0.3748563212202117  0.0583923138768922  0.5645996016934516
  0.9628454492187080  0.4999645957585036  0.4317535814384555
 
  0.00000000E+00  0.00000000E+00  0.00000000E+00
  0.00000000E+00  0.00000000E+00  0.00000000E+00
  0.00000000E+00  0.00000000E+00  0.00000000E+00
  0.00000000E+00  0.00000000E+00  0.00000000E+00
  0.00000000E+00  0.00000000E+00  0.00000000E+00
  0.00000000E+00  0.00000000E+00  0.00000000E+00
  0.00000000E+00  0.00000000E+00  0.00000000E+00
  0.00000000E+00  0.00000000E+00  0.00000000E+00
  0.00000000E+00  0.00000000E+00  0.00000000E+00
  0.00000000E+00  0.00000000E+00  0.00000000E+00
  0.00000000E+00  0.00000000E+00  0.00000000E+00
  0.00000000E+00  0.00000000E+00  0.00000000E+00
