MA-Pb-I                                 
   1.00000000000000     
     5.8892445321787328   -0.0048008041779134    0.0656571269169357
    -0.0053334077729528    5.8544884580747532    0.0012821621476484
     0.0639774282558244    0.0006908469467942    6.0230320529523143
   C    N    H    Pb   Br
     1     1     6     1     3
Direct
  0.8758582524413538  0.9291502142418030  0.3935937866479578 
  0.3233784457485038  0.8941725439307540  0.8636812905133517 
  0.8375104743093427  0.1077500418323709  0.4012229529354089 
  0.3595380888617046  0.9663395039299050  0.9478072695757667 
  0.9101904427605145  0.8880576578586921  0.4279951372419200 
  0.8016247252581268  0.0293332471916996  0.5671422008101299 
  0.3399918336668296  0.9497023795220977  0.0325137921382829 
  0.3499657176563704  0.7232961159547562  0.8658574775539680 
  0.4601725968672633  0.4905980743697059  0.4656937886762004 
  0.4352272726238539  0.4972012503325617  0.9832769846011953
  0.4159970891092727  0.9985715009710078  0.5336351900357424
  0.9598885390497535  0.4995712578389358  0.4264000332832606
 
  0.00000000E+00  0.00000000E+00  0.00000000E+00
  0.00000000E+00  0.00000000E+00  0.00000000E+00
  0.00000000E+00  0.00000000E+00  0.00000000E+00
  0.00000000E+00  0.00000000E+00  0.00000000E+00
  0.00000000E+00  0.00000000E+00  0.00000000E+00
  0.00000000E+00  0.00000000E+00  0.00000000E+00
  0.00000000E+00  0.00000000E+00  0.00000000E+00
  0.00000000E+00  0.00000000E+00  0.00000000E+00
  0.00000000E+00  0.00000000E+00  0.00000000E+00
  0.00000000E+00  0.00000000E+00  0.00000000E+00
  0.00000000E+00  0.00000000E+00  0.00000000E+00
  0.00000000E+00  0.00000000E+00  0.00000000E+00
