MA-Pb-I                                 
   1.00000000000000     
     5.8857348584972646   -0.0000116429338373    0.0677019167604032
    -0.0000113721705701    5.8535748976198549   -0.0000048572736550
     0.0678468051824150   -0.0000044748208102    6.0066012361495211
   C    N    H    Pb   Br
     1     1     6     1     3
Direct
  0.8216123723344421 -0.0710878547317463  0.9554014647574905
  0.0051497615650116  0.0644773292527319  0.8682146902063271
  0.8148782344849360 -0.0636629336499339  0.1393948671681289
  0.8430447418223037  0.7480029354705859 -0.0988428769514495
  0.6436850202781493  0.9846905936356366  0.8979367334273129
  0.4093583726808148  0.7775787756823191 -0.0811518153445083
 -0.0083053013206487  0.2338235754376130  0.9118794192702229
  0.0283126602614403  0.0545760038910568  0.6979677232084159
  0.4034462377258817  0.5199982608588916  0.4235690771612647
  0.3954820495694760  0.5196316232694397  0.9242028679284295
  0.4058715255464515  0.0186445992416144  0.4213846347310453
  0.9038874943253187  0.5197818762408166  0.4249089778149100
 
  0.00000000E+00  0.00000000E+00  0.00000000E+00
  0.00000000E+00  0.00000000E+00  0.00000000E+00
  0.00000000E+00  0.00000000E+00  0.00000000E+00
  0.00000000E+00  0.00000000E+00  0.00000000E+00
  0.00000000E+00  0.00000000E+00  0.00000000E+00
  0.00000000E+00  0.00000000E+00  0.00000000E+00
  0.00000000E+00  0.00000000E+00  0.00000000E+00
  0.00000000E+00  0.00000000E+00  0.00000000E+00
  0.00000000E+00  0.00000000E+00  0.00000000E+00
  0.00000000E+00  0.00000000E+00  0.00000000E+00
  0.00000000E+00  0.00000000E+00  0.00000000E+00
  0.00000000E+00  0.00000000E+00  0.00000000E+00
