MA-Pb-I                                 
   1.00000000000000     
     5.8892445321787328   -0.0048008041779134    0.0656571269169357
    -0.0053334077729528    5.8544884580747532    0.0012821621476484
     0.0639774282558244    0.0006908469467942    6.0230320529523143
   C    N    H    Pb   Br
     1     1     6     1     3
Direct
  0.1030282230076099  0.7450796111145774  0.4469875867837477 
  0.9394274629822708  0.7746850986691556  0.0175110351118593 
  0.1582730282114832  0.8113380188532866  0.6081846388138676 
  0.9926746049635659  0.5477949452217716  0.8724729554207344 
  0.4224986026901493  0.2919580230498079  0.1686026619473500 
  0.7039429434582596  0.0346805004371573  0.7179052223204101 
  0.1178384991431726  0.7724502107557121  0.0228484835534402 
  0.8943302092051897  0.7007489482894538  0.8678111492596294 
  0.4076230698121737  0.4958579072412177  0.5204674643138414 
  0.4352272726238539  0.4972012503325617  0.9832769846011953
  0.4159970891092727  0.9985715009710078  0.5336351900357424
  0.9598885390497535  0.4995712578389358  0.4264000332832606
 
  0.00000000E+00  0.00000000E+00  0.00000000E+00
  0.00000000E+00  0.00000000E+00  0.00000000E+00
  0.00000000E+00  0.00000000E+00  0.00000000E+00
  0.00000000E+00  0.00000000E+00  0.00000000E+00
  0.00000000E+00  0.00000000E+00  0.00000000E+00
  0.00000000E+00  0.00000000E+00  0.00000000E+00
  0.00000000E+00  0.00000000E+00  0.00000000E+00
  0.00000000E+00  0.00000000E+00  0.00000000E+00
  0.00000000E+00  0.00000000E+00  0.00000000E+00
  0.00000000E+00  0.00000000E+00  0.00000000E+00
  0.00000000E+00  0.00000000E+00  0.00000000E+00
  0.00000000E+00  0.00000000E+00  0.00000000E+00
