MA-Pb-I                                 
   1.0000000000000000     
     5.6267413476480952    0.0000416704727542    0.0620815770375229
    -0.0000317550626923    5.5940171136319288    0.0000254647194750
     0.0578866146782483   -0.0000342937909938    5.7648243532177101
   C    N    H    Pb   Cl
     1     1     6     1     3
Direct
  0.6215977163850394  0.5041308356317810  0.6273077486556710 
  0.4256749704213739  0.4740522852283074  0.4595675205704960 
  0.6445420911811331  0.6917782762733671  0.6539419247764531 
  0.7853171914277887  0.4267638358262967  0.5516010911364176 
  0.5762631644241740  0.4174312765260870  0.7974517823841563 
  0.4621705479294320  0.5538234006801875  0.2945732634298776 
  0.2658671216422184  0.5450629382066622  0.5254279280154387 
  0.3932468545705876  0.2997348550972814  0.4253776391224654 
  0.7772873863782981  0.1302814740157643  0.5517746628526716 
  0.9135858188955126  0.0000223702692494  0.4744099460480626
  0.9004629834686284  0.5000248740275239  0.0232973215355017
  0.4490472465535831  0.0000309138028598  0.9238306684389244

  0.00000000E+00  0.00000000E+00  0.00000000E+00
  0.00000000E+00  0.00000000E+00  0.00000000E+00
  0.00000000E+00  0.00000000E+00  0.00000000E+00
  0.00000000E+00  0.00000000E+00  0.00000000E+00
  0.00000000E+00  0.00000000E+00  0.00000000E+00
  0.00000000E+00  0.00000000E+00  0.00000000E+00
  0.00000000E+00  0.00000000E+00  0.00000000E+00
  0.00000000E+00  0.00000000E+00  0.00000000E+00
  0.00000000E+00  0.00000000E+00  0.00000000E+00
  0.00000000E+00  0.00000000E+00  0.00000000E+00
  0.00000000E+00  0.00000000E+00  0.00000000E+00
  0.00000000E+00  0.00000000E+00  0.00000000E+00
