MA-Pb-I                                 
   1.00000000000000     
     5.8892445321787328   -0.0048008041779134    0.0656571269169357
    -0.0053334077729528    5.8544884580747532    0.0012821621476484
     0.0639774282558244    0.0006908469467942    6.0230320529523143
   C    N    H    Pb   Br
     1     1     6     1     3
Direct
  0.9064513462688470  0.8956349935835398  0.0057178170304734
  0.9164248256835840  0.8360185894491475  0.7667507973507252
  0.0614377732903907  0.8352702692359514  0.0853378332809740
  0.7736598021309595  0.7939226662032659  0.0890122613180321
 -0.0962142739390754  0.6589303843441080  0.7299164407793427
  0.3979014614209936  0.2233561346166698 -0.0385118535503607
  0.0648919519649857  0.8999443050402631  0.6872103308425384
  0.7842748468137622  0.9101783196484217  0.6759292882152118
  0.4419875552186099  0.4217487375477750  0.4315023703862121
  0.4443508533937574  0.4666952241979341 -0.0720708199193804
  0.4393298250876715 -0.0761043587530424  0.4415080767234103
 -0.0602625699843444  0.4020030258940506  0.4327092779299281
 
  0.00000000E+00  0.00000000E+00  0.00000000E+00
  0.00000000E+00  0.00000000E+00  0.00000000E+00
  0.00000000E+00  0.00000000E+00  0.00000000E+00
  0.00000000E+00  0.00000000E+00  0.00000000E+00
  0.00000000E+00  0.00000000E+00  0.00000000E+00
  0.00000000E+00  0.00000000E+00  0.00000000E+00
  0.00000000E+00  0.00000000E+00  0.00000000E+00
  0.00000000E+00  0.00000000E+00  0.00000000E+00
  0.00000000E+00  0.00000000E+00  0.00000000E+00
  0.00000000E+00  0.00000000E+00  0.00000000E+00
  0.00000000E+00  0.00000000E+00  0.00000000E+00
  0.00000000E+00  0.00000000E+00  0.00000000E+00
