MA-Pb-I                                 
   1.00000000000000     
     5.8857348584972646   -0.0000116429338373    0.0677019167604032
    -0.0000113721705701    5.8535748976198549   -0.0000048572736550
     0.0678468051824150   -0.0000044748208102    6.0066012361495211
   C    N    H    Pb   Br
     1     1     6     1     3
Direct
  0.2938401176457092  0.7246465208885029  0.0825232699314989
  0.1052770147406878  0.7069896163104825 -0.0229175438040392
  0.3902251713294020  0.8792898664883759  0.0275273104538054
  0.2690172272605762  0.0166694249456544  0.3274832270552381
  0.6677533758301665  0.8281017989307190  0.8758539383625852
  0.6832367029068681 -0.0366359946220965  0.8855737957518408
  0.0620617225703923  0.8054535656397864 -0.1595088963712064
 -0.0135584678322238  0.5813310455660639  0.0104014634103506
  0.4124846799943023  0.5588337898011045  0.4462881527887910
  0.5768613519668252  0.4003783395436208  0.9238629634974774
  0.4207993627353103  0.0590140640453854  0.5123349958614138
  0.9199640598970268  0.5514224787178255  0.4673641556109473
 
  0.00000000E+00  0.00000000E+00  0.00000000E+00
  0.00000000E+00  0.00000000E+00  0.00000000E+00
  0.00000000E+00  0.00000000E+00  0.00000000E+00
  0.00000000E+00  0.00000000E+00  0.00000000E+00
  0.00000000E+00  0.00000000E+00  0.00000000E+00
  0.00000000E+00  0.00000000E+00  0.00000000E+00
  0.00000000E+00  0.00000000E+00  0.00000000E+00
  0.00000000E+00  0.00000000E+00  0.00000000E+00
  0.00000000E+00  0.00000000E+00  0.00000000E+00
  0.00000000E+00  0.00000000E+00  0.00000000E+00
  0.00000000E+00  0.00000000E+00  0.00000000E+00
  0.00000000E+00  0.00000000E+00  0.00000000E+00
