MA-Pb-I                                 
   1.00000000000000     
     6.2884187138843197    0.0009579558247489    0.0690993966769832
     0.0005978161223733    6.2287690412624563   -0.0003732067435118
     0.0697053521696059    0.0000445224912706    6.3737103126460282
   C    N    H    Pb   I 
     1     1     6     1     3
Direct
  0.4067802212830190  0.3847990641404224  0.4767727782689460
  0.4563165896432722  0.5776194373597568  0.3481518227857168
  0.2336975225245269  0.3650025017533747  0.4868161819688068
  0.4467309067757684  0.3941484681081602  0.6442286512425015
  0.4916243915537925  0.2407278872650830  0.4146931681337965
  0.3663490318709767  0.7091294119650826  0.3966173084608925
  0.4403517498598348  0.5597365186778803  0.1859815375483071
  0.6152540440539448  0.6195708452118938  0.3691232994649131
  0.8751794967858145  0.3203065302343244  0.6237374957756880
  0.9528580370281753  0.8342785497198816  0.4810214734552897
  0.8921503922686220  0.4478286523485143  0.0854678601373230
  0.4970128234437810  0.0562250505902243  0.8599567072889881
 
  0.00000000E+00  0.00000000E+00  0.00000000E+00
  0.00000000E+00  0.00000000E+00  0.00000000E+00
  0.00000000E+00  0.00000000E+00  0.00000000E+00
  0.00000000E+00  0.00000000E+00  0.00000000E+00
  0.00000000E+00  0.00000000E+00  0.00000000E+00
  0.00000000E+00  0.00000000E+00  0.00000000E+00
  0.00000000E+00  0.00000000E+00  0.00000000E+00
  0.00000000E+00  0.00000000E+00  0.00000000E+00
  0.00000000E+00  0.00000000E+00  0.00000000E+00
  0.00000000E+00  0.00000000E+00  0.00000000E+00
  0.00000000E+00  0.00000000E+00  0.00000000E+00
  0.00000000E+00  0.00000000E+00  0.00000000E+00
