MA-Pb-I                                 
   1.00000000000000     
     5.8892445321787328   -0.0048008041779134    0.0656571269169357
    -0.0053334077729528    5.8544884580747532    0.0012821621476484
     0.0639774282558244    0.0006908469467942    6.0230320529523143
   C    N    H    Pb   Br
     1     1     6     1     3
Direct
  0.9080264999452695  0.9935681700261999  0.9596566183986124
  0.1373353164214532  0.9955338964766055  0.0550125395843254
  0.9255239406415973  0.9928380789105566  0.7776677142936492
  0.8161664142622428  0.1473390422399792  0.0150305657159761
  0.8179084185225804  0.8388889101118260  0.0163546012314104
  0.2294923602290840  0.1405810134755697  0.0059430071714610
  0.2308129136030766  0.8514055183675555  0.0065055261464352
  0.1343805397578974  0.9956417406262735  0.2279334177913333
  0.4672220838338737  0.4981620676230005  0.4883715417465753
  0.4352272726238539  0.4972012503325617  0.9832769846011953
  0.4159970891092727  0.9985715009710078  0.5336351900357424
  0.9598885390497535  0.4995712578389358  0.4264000332832606
 
  0.00000000E+00  0.00000000E+00  0.00000000E+00
  0.00000000E+00  0.00000000E+00  0.00000000E+00
  0.00000000E+00  0.00000000E+00  0.00000000E+00
  0.00000000E+00  0.00000000E+00  0.00000000E+00
  0.00000000E+00  0.00000000E+00  0.00000000E+00
  0.00000000E+00  0.00000000E+00  0.00000000E+00
  0.00000000E+00  0.00000000E+00  0.00000000E+00
  0.00000000E+00  0.00000000E+00  0.00000000E+00
  0.00000000E+00  0.00000000E+00  0.00000000E+00
  0.00000000E+00  0.00000000E+00  0.00000000E+00
  0.00000000E+00  0.00000000E+00  0.00000000E+00
  0.00000000E+00  0.00000000E+00  0.00000000E+00
