MA-Pb-I                                 
   1.0000000000000000     
     5.8857348584972646   -0.0000116429338373    0.0677019167604032
    -0.0000113721705701    5.8535748976198549   -0.0000048572736550
     0.0678468051824150   -0.0000044748208102    6.0066012361495211
   C    N    H    Pb   Br
     1     1     6     1     3
Direct
  0.1789468460817495  0.3762552842309161  0.1420886804856059 
  0.2517467553623014  0.1278217489694580  0.6907500168455315 
  0.2562695121411023  0.2302824978719935  0.0627366189254959 
  0.4571192600848872  0.9932980196749923  0.9643038424233699 
  0.6652649492359994  0.7668678914187630  0.5836988935597773 
  0.9432331935805061  0.3175545949221698  0.9087568301280751 
  0.1571589341661612  0.0848354651232952  0.5453505966338480 
  0.1673929369893927  0.2587364290379197  0.7669599226605350 
  0.6197199165620518  0.4306679763337838  0.4556066652190370 
  0.4343825501137815  0.4999407920523851  0.9818407606070920
  0.4217797225331665  0.9999416700962840  0.5296464633737443
  0.9610032600387797  0.4999434169907246  0.4296279775420402

  0.00000000E+00  0.00000000E+00  0.00000000E+00
  0.00000000E+00  0.00000000E+00  0.00000000E+00
  0.00000000E+00  0.00000000E+00  0.00000000E+00
  0.00000000E+00  0.00000000E+00  0.00000000E+00
  0.00000000E+00  0.00000000E+00  0.00000000E+00
  0.00000000E+00  0.00000000E+00  0.00000000E+00
  0.00000000E+00  0.00000000E+00  0.00000000E+00
  0.00000000E+00  0.00000000E+00  0.00000000E+00
  0.00000000E+00  0.00000000E+00  0.00000000E+00
  0.00000000E+00  0.00000000E+00  0.00000000E+00
  0.00000000E+00  0.00000000E+00  0.00000000E+00
  0.00000000E+00  0.00000000E+00  0.00000000E+00
