MA-Pb-I                                 
   1.0000000000000000     
     6.2884187138843197    0.0009579558247489    0.0690993966769832
     0.0005978161223733    6.2287690412624563   -0.0003732067435118
     0.0697053521696059    0.0000445224912706    6.3737103126460282
   C    N    H    Pb   I 
     1     1     6     1     3
Direct
  0.6125697163599517  0.3711853127773950  0.6019073336403502 
  0.4022443329138099  0.4420326067239306  0.5305293591467695 
  0.7096817637951431  0.5124088174956652  0.6240163102448518 
  0.6835995881484398  0.2668703531213422  0.4787241008691466 
  0.5958197511927861  0.2841385040120866  0.7543197854361516 
  0.4101884112826198  0.5254962331453057  0.3851370924015136 
  0.3279563357439566  0.5416316251644355  0.6434217069161066 
  0.3009829335770999  0.3160377704803309  0.5061406826524746 
  0.0418237041169423  0.3027874104110146  0.8994806001813918 
  0.9094873486598019  0.9999820990246278  0.4751454839169895
  0.8992708791277906  0.4999580210910821  0.0236644354684188
  0.4323428768805755  0.9999948727175436  0.9224794036872126

  0.00000000E+00  0.00000000E+00  0.00000000E+00
  0.00000000E+00  0.00000000E+00  0.00000000E+00
  0.00000000E+00  0.00000000E+00  0.00000000E+00
  0.00000000E+00  0.00000000E+00  0.00000000E+00
  0.00000000E+00  0.00000000E+00  0.00000000E+00
  0.00000000E+00  0.00000000E+00  0.00000000E+00
  0.00000000E+00  0.00000000E+00  0.00000000E+00
  0.00000000E+00  0.00000000E+00  0.00000000E+00
  0.00000000E+00  0.00000000E+00  0.00000000E+00
  0.00000000E+00  0.00000000E+00  0.00000000E+00
  0.00000000E+00  0.00000000E+00  0.00000000E+00
  0.00000000E+00  0.00000000E+00  0.00000000E+00
