MA-Pb-I                                 
   1.00000000000000     
     5.8857348584972646   -0.0000116429338373    0.0677019167604032
    -0.0000113721705701    5.8535748976198549   -0.0000048572736550
     0.0678468051824150   -0.0000044748208102    6.0066012361495211
   C    N    H    Pb   Br
     1     1     6     1     3
Direct
  0.1697214322925575  0.9528429717115571 -0.0136994571984163
  0.0408450020905166  0.0759226042384640  0.8675458701746355
  0.1011033864366668  0.7992098433743993  0.0740740204063666
 -0.0171585696079795 -0.0040478221262921  0.4292470115117062
  0.1187019819418131  0.0213150688108026  0.4171408448065385
  0.8713211523734564  0.0385924841763161 -0.1520673672746277
  0.3505090944702768  0.0001587389918175 -0.0024291938577666
  0.0982723703799245  0.2193502322533292  0.7803649754772258
  0.5506680838219342  0.5082241227927581  0.4318058267352833
  0.5276885525761055  0.5016889861077339 -0.0663682524077080
  0.5540821580582703  0.0099627908069026  0.4339001082466364
  0.0532175555627751  0.5108545016328799  0.4366396544253001
 
  0.00000000E+00  0.00000000E+00  0.00000000E+00
  0.00000000E+00  0.00000000E+00  0.00000000E+00
  0.00000000E+00  0.00000000E+00  0.00000000E+00
  0.00000000E+00  0.00000000E+00  0.00000000E+00
  0.00000000E+00  0.00000000E+00  0.00000000E+00
  0.00000000E+00  0.00000000E+00  0.00000000E+00
  0.00000000E+00  0.00000000E+00  0.00000000E+00
  0.00000000E+00  0.00000000E+00  0.00000000E+00
  0.00000000E+00  0.00000000E+00  0.00000000E+00
  0.00000000E+00  0.00000000E+00  0.00000000E+00
  0.00000000E+00  0.00000000E+00  0.00000000E+00
  0.00000000E+00  0.00000000E+00  0.00000000E+00
