MA-Pb-I                                 
   1.0000000000000000     
     5.8857348584972646   -0.0000116429338373    0.0677019167604032
    -0.0000113721705701    5.8535748976198549   -0.0000048572736550
     0.0678468051824150   -0.0000044748208102    6.0066012361495211
   C    N    H    Pb   Br
     1     1     6     1     3
Direct
  0.2072896468880173  0.8406489172486864  0.9296844632598025 
  0.0319337158557547  0.0820565223681563  0.8297474232645483 
  0.2319329347238870  0.6608562127568366  0.9551970188726407 
  0.0619213949329513  0.0867317284907413  0.4886359199058641 
  0.4196197671960569  0.9665859856539732  0.2622312385246404 
  0.8644776777699430  0.1669614794011230  0.0355488189366482 
  0.2043410033883575  0.0434779446155579  0.8028571190701607 
  0.0132970736625596  0.2505191762458570  0.7932073125354615 
  0.5669934532930628  0.5364106768503449  0.5979295251525241 
  0.4343825501137815  0.4999407920523851  0.9818407606070920
  0.4217797225331665  0.9999416700962840  0.5296464633737443
  0.9610032600387797  0.4999434169907246  0.4296279775420402

  0.00000000E+00  0.00000000E+00  0.00000000E+00
  0.00000000E+00  0.00000000E+00  0.00000000E+00
  0.00000000E+00  0.00000000E+00  0.00000000E+00
  0.00000000E+00  0.00000000E+00  0.00000000E+00
  0.00000000E+00  0.00000000E+00  0.00000000E+00
  0.00000000E+00  0.00000000E+00  0.00000000E+00
  0.00000000E+00  0.00000000E+00  0.00000000E+00
  0.00000000E+00  0.00000000E+00  0.00000000E+00
  0.00000000E+00  0.00000000E+00  0.00000000E+00
  0.00000000E+00  0.00000000E+00  0.00000000E+00
  0.00000000E+00  0.00000000E+00  0.00000000E+00
  0.00000000E+00  0.00000000E+00  0.00000000E+00
