MA-Pb-I                                 
   1.00000000000000     
     5.8892445321787328   -0.0048008041779134    0.0656571269169357
    -0.0053334077729528    5.8544884580747532    0.0012821621476484
     0.0639774282558244    0.0006908469467942    6.0230320529523143
   C    N    H    Pb   Br
     1     1     6     1     3
Direct
  0.8242698136364035  0.8491316661248987  0.8235497661963038 
  0.7262666869908445  0.1397814912685896  0.1326996386945869 
  0.8535988482642876  0.6689516971186062  0.8134680412460775 
  0.4731268068677104  0.0477663092446979  0.0794674061114837 
  0.1962002901282607  0.9714605284441156  0.7085422343675718 
  0.9968297600358484  0.1675739650913594  0.3154674967730788 
  0.7127957454877007  0.0884697416724594  0.9622601509217656 
  0.6865430517510275  0.3080694631836747  0.1361001926812881 
  0.5263856745592795  0.5435786059675709  0.5487480043650241 
  0.4352272726238539  0.4972012503325617  0.9832769846011953
  0.4159970891092727  0.9985715009710078  0.5336351900357424
  0.9598885390497535  0.4995712578389358  0.4264000332832606
 
  0.00000000E+00  0.00000000E+00  0.00000000E+00
  0.00000000E+00  0.00000000E+00  0.00000000E+00
  0.00000000E+00  0.00000000E+00  0.00000000E+00
  0.00000000E+00  0.00000000E+00  0.00000000E+00
  0.00000000E+00  0.00000000E+00  0.00000000E+00
  0.00000000E+00  0.00000000E+00  0.00000000E+00
  0.00000000E+00  0.00000000E+00  0.00000000E+00
  0.00000000E+00  0.00000000E+00  0.00000000E+00
  0.00000000E+00  0.00000000E+00  0.00000000E+00
  0.00000000E+00  0.00000000E+00  0.00000000E+00
  0.00000000E+00  0.00000000E+00  0.00000000E+00
  0.00000000E+00  0.00000000E+00  0.00000000E+00
