MA-Pb-I                                 
   1.0000000000000000     
     6.2884187138843197    0.0009579558247489    0.0690993966769832
     0.0005978161223733    6.2287690412624563   -0.0003732067435118
     0.0697053521696059    0.0000445224912706    6.3737103126460282
   C    N    H    Pb   I 
     1     1     6     1     3
Direct
  0.3796581484753594  0.4573087163509359  0.4934144734498245 
  0.5023679535208713  0.6481918688414134  0.5468639548795754 
  0.4035776534375916  0.3433278810113832  0.6210853837862207 
  0.4384518136576889  0.3913274068429762  0.3408014528377532 
  0.2090033259177502  0.4997472058659677  0.4806406777239494 
  0.6664607124866642  0.6155670612571442  0.5601825483092086 
  0.4514003035810815  0.7171500003771527  0.6911914572393403 
  0.4872847155511637  0.7638825076397919  0.4323582811179847 
  0.0657791227458695  0.9676208250044229  0.1890263004782726 
  0.9094873486598019  0.9999820990246278  0.4751454839169895
  0.8992708791277906  0.4999580210910821  0.0236644354684188
  0.4323428768805755  0.9999948727175436  0.9224794036872126

  0.00000000E+00  0.00000000E+00  0.00000000E+00
  0.00000000E+00  0.00000000E+00  0.00000000E+00
  0.00000000E+00  0.00000000E+00  0.00000000E+00
  0.00000000E+00  0.00000000E+00  0.00000000E+00
  0.00000000E+00  0.00000000E+00  0.00000000E+00
  0.00000000E+00  0.00000000E+00  0.00000000E+00
  0.00000000E+00  0.00000000E+00  0.00000000E+00
  0.00000000E+00  0.00000000E+00  0.00000000E+00
  0.00000000E+00  0.00000000E+00  0.00000000E+00
  0.00000000E+00  0.00000000E+00  0.00000000E+00
  0.00000000E+00  0.00000000E+00  0.00000000E+00
  0.00000000E+00  0.00000000E+00  0.00000000E+00
