MA-Pb-I                                 
   1.00000000000000     
     5.8892445321787328   -0.0048008041779134    0.0656571269169357
    -0.0053334077729528    5.8544884580747532    0.0012821621476484
     0.0639774282558244    0.0006908469467942    6.0230320529523143
   C    N    H    Pb   Br
     1     1     6     1     3
Direct
  0.3196906392711057  0.5645876829486139  0.0501213594441867
  0.3911790469875044  0.1317214481126058  0.8606289814435626
  0.2731803687028582  0.7465013351375257  0.0590785451554836
  0.2515699329136235  0.4704150381090146  0.9052081479493407
  0.3829914168194362  0.1663964207010920  0.0267166372048400
  0.7977441116064981  0.5317940543110484  0.7119086664320765
  0.2607203643666032  0.0266638130115210  0.8191047629764848
  0.5351277515881306  0.0372158453412055  0.8268318733739390
  0.4067149990055665  0.4498662615247594  0.4468420607500327
  0.6559549854280324  0.5897812567689836 -0.0276254979111744
  0.4255256179491231  0.9360701338388313  0.4156269346420225
  0.9265957925285746  0.4606597871325400  0.4767243776126975
 
  0.00000000E+00  0.00000000E+00  0.00000000E+00
  0.00000000E+00  0.00000000E+00  0.00000000E+00
  0.00000000E+00  0.00000000E+00  0.00000000E+00
  0.00000000E+00  0.00000000E+00  0.00000000E+00
  0.00000000E+00  0.00000000E+00  0.00000000E+00
  0.00000000E+00  0.00000000E+00  0.00000000E+00
  0.00000000E+00  0.00000000E+00  0.00000000E+00
  0.00000000E+00  0.00000000E+00  0.00000000E+00
  0.00000000E+00  0.00000000E+00  0.00000000E+00
  0.00000000E+00  0.00000000E+00  0.00000000E+00
  0.00000000E+00  0.00000000E+00  0.00000000E+00
  0.00000000E+00  0.00000000E+00  0.00000000E+00
