MA-Pb-I                                 
   1.00000000000000     
     5.8892445321787328   -0.0048008041779134    0.0656571269169357
    -0.0053334077729528    5.8544884580747532    0.0012821621476484
     0.0639774282558244    0.0006908469467942    6.0230320529523143
   C    N    H    Pb   Br
     1     1     6     1     3
Direct
  0.9329560260410688  0.7757424207294304  0.9663832312148672 
  0.2647292212006189  0.6941331590824323  0.6025183856078384 
  0.8919829125803644  0.6722154872953062  0.8213658780865370 
  0.4745584013763701  0.4600504021191708  0.8600985445816125 
  0.9488706789788237  0.1813286722852965  0.2125366572217623 
  0.8473300882457906  0.0707473969746060  0.0920449608132927 
  0.3071524490874603  0.7834417289141857  0.4538972902205189 
  0.2955029537535559  0.8017407657806890  0.7343666044839712 
  0.5072674733425573  0.3878929302501582  0.5402559060290812 
  0.4352272726238539  0.4972012503325617  0.9832769846011953
  0.4159970891092727  0.9985715009710078  0.5336351900357424
  0.9598885390497535  0.4995712578389358  0.4264000332832606
 
  0.00000000E+00  0.00000000E+00  0.00000000E+00
  0.00000000E+00  0.00000000E+00  0.00000000E+00
  0.00000000E+00  0.00000000E+00  0.00000000E+00
  0.00000000E+00  0.00000000E+00  0.00000000E+00
  0.00000000E+00  0.00000000E+00  0.00000000E+00
  0.00000000E+00  0.00000000E+00  0.00000000E+00
  0.00000000E+00  0.00000000E+00  0.00000000E+00
  0.00000000E+00  0.00000000E+00  0.00000000E+00
  0.00000000E+00  0.00000000E+00  0.00000000E+00
  0.00000000E+00  0.00000000E+00  0.00000000E+00
  0.00000000E+00  0.00000000E+00  0.00000000E+00
  0.00000000E+00  0.00000000E+00  0.00000000E+00
