MA-Pb-I                                 
   1.00000000000000     
     5.8892445321787328   -0.0048008041779134    0.0656571269169357
    -0.0053334077729528    5.8544884580747532    0.0012821621476484
     0.0639774282558244    0.0006908469467942    6.0230320529523143
   C    N    H    Pb   Br
     1     1     6     1     3
Direct
  0.0182848705844559  0.1717072032010716  0.4394104168808454
  0.0085815262519445  0.1208072616328239  0.6472427199341957
  0.8678444914840419  0.1609562531345043  0.3391904618271512
  0.1835663638207424  0.1749898747581131  0.3525515509009811
 -0.0487893662009326  0.5338104479168688  0.8378761545751375
  0.0926153207288319  0.5364087263865509  0.8284967278343804
  0.1594479163738867  0.1064021809300935  0.7301257957944400
 -0.1368167611619310  0.0901137637079437  0.7269188600519489
  0.5166278151180963  0.5310812897560031  0.3223046439374647
  0.5161070969102631  0.5182839414220948 -0.1716722520268026
  0.5214897772925786  0.0020026194253044  0.3070363553754187
  0.0160657360562529  0.5767593506534523  0.3261421471464395
 
  0.00000000E+00  0.00000000E+00  0.00000000E+00
  0.00000000E+00  0.00000000E+00  0.00000000E+00
  0.00000000E+00  0.00000000E+00  0.00000000E+00
  0.00000000E+00  0.00000000E+00  0.00000000E+00
  0.00000000E+00  0.00000000E+00  0.00000000E+00
  0.00000000E+00  0.00000000E+00  0.00000000E+00
  0.00000000E+00  0.00000000E+00  0.00000000E+00
  0.00000000E+00  0.00000000E+00  0.00000000E+00
  0.00000000E+00  0.00000000E+00  0.00000000E+00
  0.00000000E+00  0.00000000E+00  0.00000000E+00
  0.00000000E+00  0.00000000E+00  0.00000000E+00
  0.00000000E+00  0.00000000E+00  0.00000000E+00
