MA-Pb-I                                 
   1.00000000000000     
     5.8892445321787328   -0.0048008041779134    0.0656571269169357
    -0.0053334077729528    5.8544884580747532    0.0012821621476484
     0.0639774282558244    0.0006908469467942    6.0230320529523143
   C    N    H    Pb   Br
     1     1     6     1     3
Direct
  0.5512094471389413  0.2792939769094314  0.8572049030926951
  0.7503127074380788  0.1269730940399079  0.7864896288461422
  0.4042687723056760  0.1614973297635861  0.8759331549643252
  0.7129183884704959 -0.0452083084814247  0.7966291257071507
  0.2566430161590955  0.8571840375675108  0.1275303422109182
  0.6004409269847792  0.3440818473775303  0.0220215426502876
 -0.1128462124028331  0.1598868168935896  0.8874791937788705
  0.8050806858403615  0.1681723843379601  0.6242707729381004
  0.4115413302544566  0.5107484360802914  0.4639334658816996
  0.3369414999858029  0.6727089995156847 -0.0348103763577642
  0.3817027730415403  0.0240863240765522  0.4254592464263748
  0.9099681780108037  0.5186074572169518  0.4411634548787939
 
  0.00000000E+00  0.00000000E+00  0.00000000E+00
  0.00000000E+00  0.00000000E+00  0.00000000E+00
  0.00000000E+00  0.00000000E+00  0.00000000E+00
  0.00000000E+00  0.00000000E+00  0.00000000E+00
  0.00000000E+00  0.00000000E+00  0.00000000E+00
  0.00000000E+00  0.00000000E+00  0.00000000E+00
  0.00000000E+00  0.00000000E+00  0.00000000E+00
  0.00000000E+00  0.00000000E+00  0.00000000E+00
  0.00000000E+00  0.00000000E+00  0.00000000E+00
  0.00000000E+00  0.00000000E+00  0.00000000E+00
  0.00000000E+00  0.00000000E+00  0.00000000E+00
  0.00000000E+00  0.00000000E+00  0.00000000E+00
