MA-Pb-I                                 
   1.00000000000000     
     5.8857348584972646   -0.0000116429338373    0.0677019167604032
    -0.0000113721705701    5.8535748976198549   -0.0000048572736550
     0.0678468051824150   -0.0000044748208102    6.0066012361495211
   C    N    H    Pb   Br
     1     1     6     1     3
Direct
 -0.1292977620177582  0.7946569124267111  0.0811388381012710
  0.5107116467322683  0.2589482354058507  0.0749030988934750
 -0.0187099736142902  0.7428298703649729  0.5604060801527754
  0.0094630601985976  0.1029978240502612  0.5531365707298903
  0.8367712248406985 -0.1690333406208624 -0.0960371854669474
  0.9845955916447932  0.8857227957459004  0.5681020236438838
  0.0243002630741456  0.8924440146038011  0.1356164973121748
  0.4945799343971733  0.1651223914853833 -0.0765233565954479
  0.9204543621122013  0.3608827496478737  0.0652114381401122
  0.4563395632516465  0.5767216381983064  0.7831508850355978
  0.6007659222852547 -0.0752642393473821  0.2447005576078359
 -0.0559986560296760  0.3584378512538386  0.5581512862855411
 
  0.00000000E+00  0.00000000E+00  0.00000000E+00
  0.00000000E+00  0.00000000E+00  0.00000000E+00
  0.00000000E+00  0.00000000E+00  0.00000000E+00
  0.00000000E+00  0.00000000E+00  0.00000000E+00
  0.00000000E+00  0.00000000E+00  0.00000000E+00
  0.00000000E+00  0.00000000E+00  0.00000000E+00
  0.00000000E+00  0.00000000E+00  0.00000000E+00
  0.00000000E+00  0.00000000E+00  0.00000000E+00
  0.00000000E+00  0.00000000E+00  0.00000000E+00
  0.00000000E+00  0.00000000E+00  0.00000000E+00
  0.00000000E+00  0.00000000E+00  0.00000000E+00
  0.00000000E+00  0.00000000E+00  0.00000000E+00
