MA-Pb-I                                 
   1.0000000000000000     
     5.6267413476480952    0.0000416704727542    0.0620815770375229
    -0.0000317550626923    5.5940171136319288    0.0000254647194750
     0.0578866146782483   -0.0000342937909938    5.7648243532177101
   C    N    H    Pb   Cl
     1     1     6     1     3
Direct
  0.5754408973800316  0.4833433030403398  0.5864437341010256 
  0.3621161184648940  0.5854368383612294  0.4792211877552421 
  0.5430335943259780  0.4696191831886841  0.7740838174915800 
  0.7285564382204543  0.6016130460698259  0.5534419735904577 
  0.6080279092619466  0.3051339482901910  0.5109418142568414 
  0.3251237543729247  0.7559492362032971  0.5461207401341929 
  0.2119452555763964  0.4775541144857229  0.5062153438852799 
  0.3795893819859910  0.6039584777100083  0.3004511369181301 
  0.9091047171100197  0.2981242819892611  0.9699873003672468 
  0.9135858188955126  0.0000223702692494  0.4744099460480626
  0.9004629834686284  0.5000248740275239  0.0232973215355017
  0.4490472465535831  0.0000309138028598  0.9238306684389244

  0.00000000E+00  0.00000000E+00  0.00000000E+00
  0.00000000E+00  0.00000000E+00  0.00000000E+00
  0.00000000E+00  0.00000000E+00  0.00000000E+00
  0.00000000E+00  0.00000000E+00  0.00000000E+00
  0.00000000E+00  0.00000000E+00  0.00000000E+00
  0.00000000E+00  0.00000000E+00  0.00000000E+00
  0.00000000E+00  0.00000000E+00  0.00000000E+00
  0.00000000E+00  0.00000000E+00  0.00000000E+00
  0.00000000E+00  0.00000000E+00  0.00000000E+00
  0.00000000E+00  0.00000000E+00  0.00000000E+00
  0.00000000E+00  0.00000000E+00  0.00000000E+00
  0.00000000E+00  0.00000000E+00  0.00000000E+00
