MA-Pb-I                                 
   1.00000000000000     
     5.6267413476480952    0.0000416704727542    0.0620815770375229
    -0.0000317550626923    5.5940171136319288    0.0000254647194750
     0.0578866146782483   -0.0000342937909938    5.7648243532177101
   C    N    H    Pb   Cl
     1     1     6     1     3
Direct
  0.5622065199444406  0.5103644342206362  0.5975317426425257
  0.7473420085791093  0.4312073448841653  0.7606956489597388
  0.3994362619825126  0.5625591698068818  0.6964271629283937
  0.5215540808559037  0.3633162317998470  0.4788138464738516
  0.6282892604229956  0.6651739958775251  0.4958759467781191
  0.6881013589389914  0.2959902568299148  0.8771260453612801
  0.8107497098152823  0.5684396163276210  0.8644451129291719
  0.8971328633336489  0.3549415565273295  0.6773248364624970
  0.1455645909379151  0.0097276519288855  0.1552390198131726
  0.6484631396189363  0.0124194925520040  0.1474929236153457
  0.1475907430139463  0.5103544518094897  0.1581432775832519
  0.1393864760402509  0.0111195835082504  0.6571404785637851
 
  0.00000000E+00  0.00000000E+00  0.00000000E+00
  0.00000000E+00  0.00000000E+00  0.00000000E+00
  0.00000000E+00  0.00000000E+00  0.00000000E+00
  0.00000000E+00  0.00000000E+00  0.00000000E+00
  0.00000000E+00  0.00000000E+00  0.00000000E+00
  0.00000000E+00  0.00000000E+00  0.00000000E+00
  0.00000000E+00  0.00000000E+00  0.00000000E+00
  0.00000000E+00  0.00000000E+00  0.00000000E+00
  0.00000000E+00  0.00000000E+00  0.00000000E+00
  0.00000000E+00  0.00000000E+00  0.00000000E+00
  0.00000000E+00  0.00000000E+00  0.00000000E+00
  0.00000000E+00  0.00000000E+00  0.00000000E+00
