MA-Pb-I                                 
   1.0000000000000000     
     5.6267413476480952    0.0000416704727542    0.0620815770375229
    -0.0000317550626923    5.5940171136319288    0.0000254647194750
     0.0578866146782483   -0.0000342937909938    5.7648243532177101
   C    N    H    Pb   Cl
     1     1     6     1     3
Direct
  0.5238199492156238  0.5643328636165572  0.5540650841950288 
  0.6532454537578316  0.3471425377489535  0.6132649728934281 
  0.4686852227893114  0.6436207990099778  0.7187495427656496 
  0.3666261760188650  0.5195475532362080  0.4454114565417633 
  0.6423781836969645  0.6870521263656112  0.4570859372045022 
  0.5460842632874768  0.2249673335829647  0.7055046697242591 
  0.8050165913346704  0.3822551842492785  0.7164700042195371 
  0.7114355511997360  0.2616683180272578  0.4652272497914549 
  0.3554295732657393  0.1649489121361020  0.4689391887530296 
  0.9135858188955126  0.0000223702692494  0.4744099460480626
  0.9004629834686284  0.5000248740275239  0.0232973215355017
  0.4490472465535831  0.0000309138028598  0.9238306684389244

  0.00000000E+00  0.00000000E+00  0.00000000E+00
  0.00000000E+00  0.00000000E+00  0.00000000E+00
  0.00000000E+00  0.00000000E+00  0.00000000E+00
  0.00000000E+00  0.00000000E+00  0.00000000E+00
  0.00000000E+00  0.00000000E+00  0.00000000E+00
  0.00000000E+00  0.00000000E+00  0.00000000E+00
  0.00000000E+00  0.00000000E+00  0.00000000E+00
  0.00000000E+00  0.00000000E+00  0.00000000E+00
  0.00000000E+00  0.00000000E+00  0.00000000E+00
  0.00000000E+00  0.00000000E+00  0.00000000E+00
  0.00000000E+00  0.00000000E+00  0.00000000E+00
  0.00000000E+00  0.00000000E+00  0.00000000E+00
