MA-Pb-I                                 
   1.00000000000000     
     5.8892445321787328   -0.0048008041779134    0.0656571269169357
    -0.0053334077729528    5.8544884580747532    0.0012821621476484
     0.0639774282558244    0.0006908469467942    6.0230320529523143
   C    N    H    Pb   Br
     1     1     6     1     3
Direct
  0.2394367294448996  0.5381253583595043  0.3023997449311567 
  0.5393916456794551  0.7800985619408356  0.2317734712759396 
  0.1384087301984509  0.6824247361258029  0.3513659335290318 
  0.0117582130579589  0.8688484854965829  0.2854272660040324 
  0.5548898601040062  0.1287165424997694  0.6256075334048542 
  0.8629061907596574  0.5464681586763515  0.7525768145275956 
  0.4206061711955829  0.8139090800901310  0.1028904203422489 
  0.6381500288642088  0.6503789679928051  0.1740674824007249 
  0.4764255325468700  0.4557508836808742  0.5723510782603520 
  0.4352272726238539  0.4972012503325617  0.9832769846011953
  0.4159970891092727  0.9985715009710078  0.5336351900357424
  0.9598885390497535  0.4995712578389358  0.4264000332832606
 
  0.00000000E+00  0.00000000E+00  0.00000000E+00
  0.00000000E+00  0.00000000E+00  0.00000000E+00
  0.00000000E+00  0.00000000E+00  0.00000000E+00
  0.00000000E+00  0.00000000E+00  0.00000000E+00
  0.00000000E+00  0.00000000E+00  0.00000000E+00
  0.00000000E+00  0.00000000E+00  0.00000000E+00
  0.00000000E+00  0.00000000E+00  0.00000000E+00
  0.00000000E+00  0.00000000E+00  0.00000000E+00
  0.00000000E+00  0.00000000E+00  0.00000000E+00
  0.00000000E+00  0.00000000E+00  0.00000000E+00
  0.00000000E+00  0.00000000E+00  0.00000000E+00
  0.00000000E+00  0.00000000E+00  0.00000000E+00
