MA-Pb-I                                 
   1.00000000000000     
     6.2884187138843197    0.0009579558247489    0.0690993966769832
     0.0005978161223733    6.2287690412624563   -0.0003732067435118
     0.0697053521696059    0.0000445224912706    6.3737103126460282
   C    N    H    Pb   I 
     1     1     6     1     3
Direct
  0.4886158133766791  0.5249947476408316  0.3853082109621839
  0.4096862160309101  0.4683348133033000  0.5936299210498543
  0.4063361729549805  0.6679637165041382  0.3363105676936403
  0.4481941975917028  0.4006933597591721  0.2741660048220269
  0.6576805467997954  0.5453163062809719  0.3934698677607885
  0.2475105621330346  0.4403117771394722  0.5902377992611539
  0.4415276022202193  0.5887895330631300  0.6995386039503595
  0.4804874609308141  0.3252537853062599  0.6409414224043741
  0.1133775593856287  0.0351891993919504  0.2620352803340094
  0.6498331970003195  0.0237347109667362  0.3126975669320413
  0.0440399536819148  0.5323099082586725  0.2010136065889982
  0.1365971956077758  0.0205905844203228  0.7636381339226934
 
  0.00000000E+00  0.00000000E+00  0.00000000E+00
  0.00000000E+00  0.00000000E+00  0.00000000E+00
  0.00000000E+00  0.00000000E+00  0.00000000E+00
  0.00000000E+00  0.00000000E+00  0.00000000E+00
  0.00000000E+00  0.00000000E+00  0.00000000E+00
  0.00000000E+00  0.00000000E+00  0.00000000E+00
  0.00000000E+00  0.00000000E+00  0.00000000E+00
  0.00000000E+00  0.00000000E+00  0.00000000E+00
  0.00000000E+00  0.00000000E+00  0.00000000E+00
  0.00000000E+00  0.00000000E+00  0.00000000E+00
  0.00000000E+00  0.00000000E+00  0.00000000E+00
  0.00000000E+00  0.00000000E+00  0.00000000E+00
