MA-Pb-I                                 
   1.00000000000000     
     5.6267413476480952    0.0000416704727542    0.0620815770375229
    -0.0000317550626923    5.5940171136319288    0.0000254647194750
     0.0578866146782483   -0.0000342937909938    5.7648243532177101
   C    N    H    Pb   Cl
     1     1     6     1     3
Direct
  0.3599988596487214  0.3543196920764071  0.5103328119584468
  0.1783856039759323  0.5447121329308070  0.5476820901209782
  0.4469380422997047  0.3800075075942031  0.3392171236888907
  0.2705153534991608  0.1787348605458685  0.5171364502012139
  0.4925215145407325  0.3663609150052539  0.6475986165905604
  0.0531110000492699  0.5495446402308810  0.4174155387760495
  0.2566619433422423  0.7148265195667655  0.5521507144485693
  0.0834230977511423  0.5248953381075045  0.7040963149070582
  0.7420022491181230  0.9032738238214297  0.0298367548874771
  0.7316232777131478 -0.1000537234494070  0.5299718822511733
  0.2420911001727442  0.8948463792207029  0.0322629605299807
  0.7564970482988461 -0.5925516506491622  0.0245283391342918
 
  0.00000000E+00  0.00000000E+00  0.00000000E+00
  0.00000000E+00  0.00000000E+00  0.00000000E+00
  0.00000000E+00  0.00000000E+00  0.00000000E+00
  0.00000000E+00  0.00000000E+00  0.00000000E+00
  0.00000000E+00  0.00000000E+00  0.00000000E+00
  0.00000000E+00  0.00000000E+00  0.00000000E+00
  0.00000000E+00  0.00000000E+00  0.00000000E+00
  0.00000000E+00  0.00000000E+00  0.00000000E+00
  0.00000000E+00  0.00000000E+00  0.00000000E+00
  0.00000000E+00  0.00000000E+00  0.00000000E+00
  0.00000000E+00  0.00000000E+00  0.00000000E+00
  0.00000000E+00  0.00000000E+00  0.00000000E+00
