MA-Pb-I                                 
   1.0000000000000000     
     5.6267413476480952    0.0000416704727542    0.0620815770375229
    -0.0000317550626923    5.5940171136319288    0.0000254647194750
     0.0578866146782483   -0.0000342937909938    5.7648243532177101
   C    N    H    Pb   Cl
     1     1     6     1     3
Direct
  0.4037126138748792  0.3742383683923561  0.5910570564493771 
  0.3183694444302698  0.6147528754788971  0.5431348172649360 
  0.4999175218048917  0.3168410123810676  0.4364687487904688 
  0.2507635785515903  0.2553731759514194  0.6226620525665603 
  0.5229013989039684  0.3767061330882271  0.7469704010505032 
  0.2034725008268390  0.6200045376498896  0.3958610065499953 
  0.4590124430908104  0.7339370942217958  0.5125844724704222 
  0.2249585830056959  0.6814443253532257  0.6825398337461464 
  0.4675649570030994  0.2455407543847399  0.8994132725837930 
  0.9135858188955126  0.0000223702692494  0.4744099460480626
  0.9004629834686284  0.5000248740275239  0.0232973215355017
  0.4490472465535831  0.0000309138028598  0.9238306684389244

  0.00000000E+00  0.00000000E+00  0.00000000E+00
  0.00000000E+00  0.00000000E+00  0.00000000E+00
  0.00000000E+00  0.00000000E+00  0.00000000E+00
  0.00000000E+00  0.00000000E+00  0.00000000E+00
  0.00000000E+00  0.00000000E+00  0.00000000E+00
  0.00000000E+00  0.00000000E+00  0.00000000E+00
  0.00000000E+00  0.00000000E+00  0.00000000E+00
  0.00000000E+00  0.00000000E+00  0.00000000E+00
  0.00000000E+00  0.00000000E+00  0.00000000E+00
  0.00000000E+00  0.00000000E+00  0.00000000E+00
  0.00000000E+00  0.00000000E+00  0.00000000E+00
  0.00000000E+00  0.00000000E+00  0.00000000E+00
