MA-Pb-I                                 
   1.00000000000000     
     5.8857348584972646   -0.0000116429338373    0.0677019167604032
    -0.0000113721705701    5.8535748976198549   -0.0000048572736550
     0.0678468051824150   -0.0000044748208102    6.0066012361495211
   C    N    H    Pb   Br
     1     1     6     1     3
Direct
  0.7221971654219209  0.1776882498169136  0.0843926733136671
  0.8456500944627426  0.0003503478227166  0.0397189179916985
  0.5714725771450914  0.1448791152617011  0.1838602649046372
  0.7634878141536504  0.3407068297082602  0.0024131076924814
  0.3067479063787064 -0.1837931623642609  0.0316086374369768
  0.3079212691991294 -0.0604192712445495 -0.0233440406399583
  0.8060931745803864  0.8475943944367467  0.1191305592210597
  0.9911031035586881  0.0096280539891738 -0.0571638343053524
  0.2687655448669763  0.3965784083277807  0.5010932719294774
  0.2624215484155490  0.3970965007860834 -0.0074084420645621
  0.2763977369126888 -0.1060812876992462  0.5054259440033693
 -0.2265489912338726  0.3937121807910186  0.4959329304486010
 
  0.00000000E+00  0.00000000E+00  0.00000000E+00
  0.00000000E+00  0.00000000E+00  0.00000000E+00
  0.00000000E+00  0.00000000E+00  0.00000000E+00
  0.00000000E+00  0.00000000E+00  0.00000000E+00
  0.00000000E+00  0.00000000E+00  0.00000000E+00
  0.00000000E+00  0.00000000E+00  0.00000000E+00
  0.00000000E+00  0.00000000E+00  0.00000000E+00
  0.00000000E+00  0.00000000E+00  0.00000000E+00
  0.00000000E+00  0.00000000E+00  0.00000000E+00
  0.00000000E+00  0.00000000E+00  0.00000000E+00
  0.00000000E+00  0.00000000E+00  0.00000000E+00
  0.00000000E+00  0.00000000E+00  0.00000000E+00
