MA-Pb-I                                 
   1.00000000000000     
     6.2884187138843197    0.0009579558247489    0.0690993966769832
     0.0005978161223733    6.2287690412624563   -0.0003732067435118
     0.0697053521696059    0.0000445224912706    6.3737103126460282
   C    N    H    Pb   I 
     1     1     6     1     3
Direct
  0.5962003925519496  0.3863234141407467  0.4526733723032297
  0.5353244034120800  0.5401201723912704  0.6220762142760040
  0.7491000194807451  0.4377765668564672  0.3801391930661285
  0.4723610441961388  0.3815463884370379  0.3335809178091365
  0.6154408490313579  0.2259976487779700  0.5227041031792232
  0.5226093517782796  0.6965359945369614  0.5679418048094118
  0.6509362463813541  0.5429570369683073  0.7380410029544958
  0.3882820509919759  0.5035894891935023  0.6958257754413094
  0.0397710508610365 -0.0347644087295176  0.9734539436557288
  0.0417754200704528  0.9541120472567703  0.4750438265776693
  0.0368983425414459  0.4676681025382688 -0.0399023381146410
  0.5406730810960785 -0.0244052374532674  0.9828780836227404
 
  0.00000000E+00  0.00000000E+00  0.00000000E+00
  0.00000000E+00  0.00000000E+00  0.00000000E+00
  0.00000000E+00  0.00000000E+00  0.00000000E+00
  0.00000000E+00  0.00000000E+00  0.00000000E+00
  0.00000000E+00  0.00000000E+00  0.00000000E+00
  0.00000000E+00  0.00000000E+00  0.00000000E+00
  0.00000000E+00  0.00000000E+00  0.00000000E+00
  0.00000000E+00  0.00000000E+00  0.00000000E+00
  0.00000000E+00  0.00000000E+00  0.00000000E+00
  0.00000000E+00  0.00000000E+00  0.00000000E+00
  0.00000000E+00  0.00000000E+00  0.00000000E+00
  0.00000000E+00  0.00000000E+00  0.00000000E+00
