MA-Pb-I                                 
   1.00000000000000     
     5.6267413476480952    0.0000416704727542    0.0620815770375229
    -0.0000317550626923    5.5940171136319288    0.0000254647194750
     0.0578866146782483   -0.0000342937909938    5.7648243532177101
   C    N    H    Pb   Cl
     1     1     6     1     3
Direct
  0.4689113014880592  0.6600858682762448  0.4142502371369183
  0.5406118147773754  0.4033693566089767  0.4072481347451868
  0.5538972357211952  0.7467842781851508  0.5614049029967316
  0.2759115299134844  0.6748597385864261  0.4318758430333703
  0.5279012916651500  0.7443089186086533  0.2493245904478228
  0.4910825400423544  0.3130480592429916  0.5604712403695996
  0.7239143313732366  0.3764872371381340  0.3876928042598320
  0.4650852588083120  0.3132209529387398  0.2687503593299096
  0.9429747497634592  0.0327288437440369  0.9399776006581075
  0.9615671669049972  0.0336762918491385  0.4477270796963913
  0.9260504194205627  0.5183957979196250 -0.0604057624971307
  0.4419805115468680  0.0447713201889011  0.9436133088721268
 
  0.00000000E+00  0.00000000E+00  0.00000000E+00
  0.00000000E+00  0.00000000E+00  0.00000000E+00
  0.00000000E+00  0.00000000E+00  0.00000000E+00
  0.00000000E+00  0.00000000E+00  0.00000000E+00
  0.00000000E+00  0.00000000E+00  0.00000000E+00
  0.00000000E+00  0.00000000E+00  0.00000000E+00
  0.00000000E+00  0.00000000E+00  0.00000000E+00
  0.00000000E+00  0.00000000E+00  0.00000000E+00
  0.00000000E+00  0.00000000E+00  0.00000000E+00
  0.00000000E+00  0.00000000E+00  0.00000000E+00
  0.00000000E+00  0.00000000E+00  0.00000000E+00
  0.00000000E+00  0.00000000E+00  0.00000000E+00
