MA-Pb-I                                 
   1.00000000000000     
     6.2884187138843197    0.0009579558247489    0.0690993966769832
     0.0005978161223733    6.2287690412624563   -0.0003732067435118
     0.0697053521696059    0.0000445224912706    6.3737103126460282
   C    N    H    Pb   I 
     1     1     6     1     3
Direct
  0.3775765881264262  0.4920368407300714  0.4693796929955029
  0.6101499726236311  0.4766036561083578  0.4963456093873999
  0.3263028649266068  0.6608111263866311  0.4861641084017045
  0.2974039471718261  0.3921168518397186  0.5899597509843437
  0.3382254922267171  0.4318239919540480  0.3125392832375322
  0.6580365543397509  0.5252178324464365  0.6459812497012857
  0.6939018962823311  0.5714448177382112  0.3867408974362356
  0.6693437285115514  0.3180935818817329  0.4775136461911333
 -0.0666077576476687  0.0257971903565679 -0.0295488734797024
  0.9343325085021432  0.0134721133658176  0.4688846950520469
  0.9287374464098579  0.5260412160637898 -0.0255277756911469
  0.4348163207942772  0.0344344818405850  0.9655882014356371
 
  0.00000000E+00  0.00000000E+00  0.00000000E+00
  0.00000000E+00  0.00000000E+00  0.00000000E+00
  0.00000000E+00  0.00000000E+00  0.00000000E+00
  0.00000000E+00  0.00000000E+00  0.00000000E+00
  0.00000000E+00  0.00000000E+00  0.00000000E+00
  0.00000000E+00  0.00000000E+00  0.00000000E+00
  0.00000000E+00  0.00000000E+00  0.00000000E+00
  0.00000000E+00  0.00000000E+00  0.00000000E+00
  0.00000000E+00  0.00000000E+00  0.00000000E+00
  0.00000000E+00  0.00000000E+00  0.00000000E+00
  0.00000000E+00  0.00000000E+00  0.00000000E+00
  0.00000000E+00  0.00000000E+00  0.00000000E+00
