MA-Pb-I                                 
   1.0000000000000000     
     6.2884187138843197    0.0009579558247489    0.0690993966769832
     0.0005978161223733    6.2287690412624563   -0.0003732067435118
     0.0697053521696059    0.0000445224912706    6.3737103126460282
   C    N    H    Pb   I 
     1     1     6     1     3
Direct
  0.3743685018501524  0.4722621298985192  0.4602858916334682 
  0.6055746398497278  0.4763440128215198  0.4899166392994309 
  0.3185186577741513  0.6355846338244717  0.4686638100210021 
  0.3010764597809814  0.3759772960464107  0.5885764589784616 
  0.3373368706937873  0.4031025191881883  0.3023844342240214 
  0.6485848099331875  0.5406231278581648  0.6388680313216537 
  0.6825220376141049  0.5660073902611830  0.3706567134815081 
  0.6700351648634562  0.3262378819849991  0.4838860923037291 
  0.0231013152397355  0.1718197159952645  0.0194930913160758 
  0.9094873486598019  0.9999820990246278  0.4751454839169895
  0.8992708791277906  0.4999580210910821  0.0236644354684188
  0.4323428768805755  0.9999948727175436  0.9224794036872126

  0.00000000E+00  0.00000000E+00  0.00000000E+00
  0.00000000E+00  0.00000000E+00  0.00000000E+00
  0.00000000E+00  0.00000000E+00  0.00000000E+00
  0.00000000E+00  0.00000000E+00  0.00000000E+00
  0.00000000E+00  0.00000000E+00  0.00000000E+00
  0.00000000E+00  0.00000000E+00  0.00000000E+00
  0.00000000E+00  0.00000000E+00  0.00000000E+00
  0.00000000E+00  0.00000000E+00  0.00000000E+00
  0.00000000E+00  0.00000000E+00  0.00000000E+00
  0.00000000E+00  0.00000000E+00  0.00000000E+00
  0.00000000E+00  0.00000000E+00  0.00000000E+00
  0.00000000E+00  0.00000000E+00  0.00000000E+00
