MA-Pb-I                                 
   1.0000000000000000     
     6.2884187138843197    0.0009579558247489    0.0690993966769832
     0.0005978161223733    6.2287690412624563   -0.0003732067435118
     0.0697053521696059    0.0000445224912706    6.3737103126460282
   C    N    H    Pb   I 
     1     1     6     1     3
Direct
  0.3692629377972931  0.3952293728465080  0.6153539526092688 
  0.5955188348663807  0.4230449706920020  0.6641953569920255 
  0.3319950871536178  0.4997080204973756  0.4828437477874848 
  0.2734938568141780  0.4393193616835732  0.7567233918183658 
  0.3397713898306509  0.2272076909179571  0.5707868491341154 
  0.6312154687050032  0.5810243978860490  0.7082004414924830 
  0.6932802043366625  0.3822167320034393  0.5339681603410265 
  0.6425945839191286  0.3284505778865024  0.7889316868951659 
  0.9228624224005249  0.6661664172327891  0.2816521801646963 
  0.9094873486598019  0.9999820990246278  0.4751454839169895
  0.8992708791277906  0.4999580210910821  0.0236644354684188
  0.4323428768805755  0.9999948727175436  0.9224794036872126

  0.00000000E+00  0.00000000E+00  0.00000000E+00
  0.00000000E+00  0.00000000E+00  0.00000000E+00
  0.00000000E+00  0.00000000E+00  0.00000000E+00
  0.00000000E+00  0.00000000E+00  0.00000000E+00
  0.00000000E+00  0.00000000E+00  0.00000000E+00
  0.00000000E+00  0.00000000E+00  0.00000000E+00
  0.00000000E+00  0.00000000E+00  0.00000000E+00
  0.00000000E+00  0.00000000E+00  0.00000000E+00
  0.00000000E+00  0.00000000E+00  0.00000000E+00
  0.00000000E+00  0.00000000E+00  0.00000000E+00
  0.00000000E+00  0.00000000E+00  0.00000000E+00
  0.00000000E+00  0.00000000E+00  0.00000000E+00
