MA-Pb-I                                 
   1.00000000000000     
     5.8892445321787328   -0.0048008041779134    0.0656571269169357
    -0.0053334077729528    5.8544884580747532    0.0012821621476484
     0.0639774282558244    0.0006908469467942    6.0230320529523143
   C    N    H    Pb   Br
     1     1     6     1     3
Direct
  0.0913394549770316 -0.0172374505811326  0.1928463987630079
  0.0902289234797276 -0.0236536104806171  0.9792602686019209
 -0.0716312292679572 -0.0178041635016317  0.2884657451448207
  0.0338367791373421  0.4809135398770459 -0.0395861994426870
  0.2563064840818537 -0.0139068426009016  0.2786298862144079
  0.0821467101590022  0.4778484504475298  0.8348548494366934
 -0.0606451911336943 -0.0297762852046410  0.8950182463584097
  0.2360722286433906 -0.0283192473411656  0.8835734317345169
  0.5677587673518805  0.4877331290933717  0.4395995391451588
  0.5611439999260667  0.4928941056236018 -0.0696634312910744
  0.5744219401734598 -0.0146922531251503  0.4883389761295122
  0.0670113213845278  0.4839140784179374  0.3969932173650659
 
  0.00000000E+00  0.00000000E+00  0.00000000E+00
  0.00000000E+00  0.00000000E+00  0.00000000E+00
  0.00000000E+00  0.00000000E+00  0.00000000E+00
  0.00000000E+00  0.00000000E+00  0.00000000E+00
  0.00000000E+00  0.00000000E+00  0.00000000E+00
  0.00000000E+00  0.00000000E+00  0.00000000E+00
  0.00000000E+00  0.00000000E+00  0.00000000E+00
  0.00000000E+00  0.00000000E+00  0.00000000E+00
  0.00000000E+00  0.00000000E+00  0.00000000E+00
  0.00000000E+00  0.00000000E+00  0.00000000E+00
  0.00000000E+00  0.00000000E+00  0.00000000E+00
  0.00000000E+00  0.00000000E+00  0.00000000E+00
