MA-Pb-I                                 
   1.00000000000000     
     5.6267413476480952    0.0000416704727542    0.0620815770375229
    -0.0000317550626923    5.5940171136319288    0.0000254647194750
     0.0578866146782483   -0.0000342937909938    5.7648243532177101
   C    N    H    Pb   Cl
     1     1     6     1     3
Direct
  0.4437829437386246  0.4156821307550380  0.5954119608206784
  0.4668106710403742  0.6156842813182770  0.4267783057727575
  0.4782561289045880  0.2452331071762775  0.5027204582461252
  0.2627416661789698  0.4170724326854033  0.6721553366089815
  0.5760603903891441  0.4396774565874577  0.7323353261393987
  0.3459776469182417  0.6040904033105546  0.2930933938404597
  0.6362851723397882  0.6254812115366495  0.3503751767837310
  0.4355215518889822  0.7809110866013744  0.5075048614738936
 -0.0490913781648251 -0.0237953045133662  0.9865916417733298
 -0.0475271839503222 -0.0349301466166472 -0.5151073228641162
  0.9491361524660819  0.4802315278208915 -0.0014415362647164
  0.4503767884065246 -0.0263316499789264  0.9805523886917663
 
  0.00000000E+00  0.00000000E+00  0.00000000E+00
  0.00000000E+00  0.00000000E+00  0.00000000E+00
  0.00000000E+00  0.00000000E+00  0.00000000E+00
  0.00000000E+00  0.00000000E+00  0.00000000E+00
  0.00000000E+00  0.00000000E+00  0.00000000E+00
  0.00000000E+00  0.00000000E+00  0.00000000E+00
  0.00000000E+00  0.00000000E+00  0.00000000E+00
  0.00000000E+00  0.00000000E+00  0.00000000E+00
  0.00000000E+00  0.00000000E+00  0.00000000E+00
  0.00000000E+00  0.00000000E+00  0.00000000E+00
  0.00000000E+00  0.00000000E+00  0.00000000E+00
  0.00000000E+00  0.00000000E+00  0.00000000E+00
