MA-Pb-I                                 
   1.0000000000000000     
     5.6267413476480952    0.0000416704727542    0.0620815770375229
    -0.0000317550626923    5.5940171136319288    0.0000254647194750
     0.0578866146782483   -0.0000342937909938    5.7648243532177101
   C    N    H    Pb   Cl
     1     1     6     1     3
Direct
  0.4633165486511686  0.3976191944621556  0.6852566988633447 
  0.4802116482081565  0.5677658174140658  0.4898291982207695 
  0.5119658814765992  0.2267279588712666  0.6154225119230370 
  0.2788662132076388  0.3925483155775537  0.7521415035802590 
  0.5874483494737571  0.4493011849406180  0.8282297566355679 
  0.3639796350476997  0.5250914561146444  0.3498739163203632 
  0.6537407268116806  0.5783808037675926  0.4213190852419251 
  0.4364474346153272  0.7347693230494152  0.5427595283978298 
  0.9092580637464227  0.1667243243860357  0.4245998558167062 
  0.9135858188955126  0.0000223702692494  0.4744099460480626
  0.9004629834686284  0.5000248740275239  0.0232973215355017
  0.4490472465535831  0.0000309138028598  0.9238306684389244

  0.00000000E+00  0.00000000E+00  0.00000000E+00
  0.00000000E+00  0.00000000E+00  0.00000000E+00
  0.00000000E+00  0.00000000E+00  0.00000000E+00
  0.00000000E+00  0.00000000E+00  0.00000000E+00
  0.00000000E+00  0.00000000E+00  0.00000000E+00
  0.00000000E+00  0.00000000E+00  0.00000000E+00
  0.00000000E+00  0.00000000E+00  0.00000000E+00
  0.00000000E+00  0.00000000E+00  0.00000000E+00
  0.00000000E+00  0.00000000E+00  0.00000000E+00
  0.00000000E+00  0.00000000E+00  0.00000000E+00
  0.00000000E+00  0.00000000E+00  0.00000000E+00
  0.00000000E+00  0.00000000E+00  0.00000000E+00
