MA-Pb-I                                 
   1.0000000000000000     
     5.6267413476480952    0.0000416704727542    0.0620815770375229
    -0.0000317550626923    5.5940171136319288    0.0000254647194750
     0.0578866146782483   -0.0000342937909938    5.7648243532177101
   C    N    H    Pb   Cl
     1     1     6     1     3
Direct
  0.5706610426516344  0.6078722312210548  0.5379180301963326 
  0.4735883976516673  0.5123387941541218  0.3168354897430609 
  0.4231630027730073  0.6404983494926926  0.6546538442819939 
  0.6651870835462772  0.7758576694021176  0.5009459148685158 
  0.6920314488537087  0.4763931228046298  0.6185622854931578 
  0.3572218661036054  0.6327548592845660  0.2339062155303747 
  0.3824260144059564  0.3515561423687071  0.3443493662867220 
  0.6036308786054857  0.4768087286192850  0.1966953019247727 
  0.5954616360833143  0.8577281043360545  0.9947815417764365 
  0.9135858188955126  0.0000223702692494  0.4744099460480626
  0.9004629834686284  0.5000248740275239  0.0232973215355017
  0.4490472465535831  0.0000309138028598  0.9238306684389244

  0.00000000E+00  0.00000000E+00  0.00000000E+00
  0.00000000E+00  0.00000000E+00  0.00000000E+00
  0.00000000E+00  0.00000000E+00  0.00000000E+00
  0.00000000E+00  0.00000000E+00  0.00000000E+00
  0.00000000E+00  0.00000000E+00  0.00000000E+00
  0.00000000E+00  0.00000000E+00  0.00000000E+00
  0.00000000E+00  0.00000000E+00  0.00000000E+00
  0.00000000E+00  0.00000000E+00  0.00000000E+00
  0.00000000E+00  0.00000000E+00  0.00000000E+00
  0.00000000E+00  0.00000000E+00  0.00000000E+00
  0.00000000E+00  0.00000000E+00  0.00000000E+00
  0.00000000E+00  0.00000000E+00  0.00000000E+00
