MA-Pb-I                                 
   1.00000000000000     
     5.8857348584972646   -0.0000116429338373    0.0677019167604032
    -0.0000113721705701    5.8535748976198549   -0.0000048572736550
     0.0678468051824150   -0.0000044748208102    6.0066012361495211
   C    N    H    Pb   Br
     1     1     6     1     3
Direct
  0.8991060214157018 -0.0496700450140415  0.7511712615628408
  0.0797315278908805  0.4877157128068728  0.1579987136390623
  0.0315844180676465  0.8952985245233186  0.8658461507697010
  0.7222080623642518 -0.0491824559904668  0.8363125667411734
  0.9256567716310916  0.4532203538764893  0.0903225925557547
 -0.0486444271627073  0.1170775214311301  0.6796237756650103
  0.1809065576128362  0.5838655771938861  0.0530463677340513
  0.1667551049522593  0.3389254949128403  0.1720177590688850
  0.4422260003080121  0.6094421822710292  0.4598865215261410
  0.5294742971072059  0.5757911324755760 -0.0685051925380997
  0.4203453839874903  0.1086696045396836  0.4624761048632669
  0.9327071261232993  0.7221479639259553  0.5120935866639706
 
  0.00000000E+00  0.00000000E+00  0.00000000E+00
  0.00000000E+00  0.00000000E+00  0.00000000E+00
  0.00000000E+00  0.00000000E+00  0.00000000E+00
  0.00000000E+00  0.00000000E+00  0.00000000E+00
  0.00000000E+00  0.00000000E+00  0.00000000E+00
  0.00000000E+00  0.00000000E+00  0.00000000E+00
  0.00000000E+00  0.00000000E+00  0.00000000E+00
  0.00000000E+00  0.00000000E+00  0.00000000E+00
  0.00000000E+00  0.00000000E+00  0.00000000E+00
  0.00000000E+00  0.00000000E+00  0.00000000E+00
  0.00000000E+00  0.00000000E+00  0.00000000E+00
  0.00000000E+00  0.00000000E+00  0.00000000E+00
