MA-Pb-I                                 
   1.0000000000000000     
     5.8857348584972646   -0.0000116429338373    0.0677019167604032
    -0.0000113721705701    5.8535748976198549   -0.0000048572736550
     0.0678468051824150   -0.0000044748208102    6.0066012361495211
   C    N    H    Pb   Br
     1     1     6     1     3
Direct
  0.8808657641957389  0.8472069230346396  0.6275955992312876 
  0.1187729918368001  0.5112424165426745  0.2557651032436057 
  0.8964457047992895  0.9804261744580559  0.7524695165187969 
  0.7936117624219632  0.1132170120051033  0.6562046355177122 
  0.7970411106883677  0.6400534421000423  0.1605358123764931 
  0.2070485691695301  0.1329813379556795  0.6655611971603819 
  0.2105737433511426  0.6466800895011698  0.1838976789094944 
  0.1173746479162415  0.3847924592413938  0.1371454471632023 
  0.4431570172331677  0.5368758329741291  0.5920000166079172 
  0.4343825501137815  0.4999407920523851  0.9818407606070920
  0.4217797225331665  0.9999416700962840  0.5296464633737443
  0.9610032600387797  0.4999434169907246  0.4296279775420402

  0.00000000E+00  0.00000000E+00  0.00000000E+00
  0.00000000E+00  0.00000000E+00  0.00000000E+00
  0.00000000E+00  0.00000000E+00  0.00000000E+00
  0.00000000E+00  0.00000000E+00  0.00000000E+00
  0.00000000E+00  0.00000000E+00  0.00000000E+00
  0.00000000E+00  0.00000000E+00  0.00000000E+00
  0.00000000E+00  0.00000000E+00  0.00000000E+00
  0.00000000E+00  0.00000000E+00  0.00000000E+00
  0.00000000E+00  0.00000000E+00  0.00000000E+00
  0.00000000E+00  0.00000000E+00  0.00000000E+00
  0.00000000E+00  0.00000000E+00  0.00000000E+00
  0.00000000E+00  0.00000000E+00  0.00000000E+00
