MA-Pb-I                                 
   1.00000000000000     
     5.8892445321787328   -0.0048008041779134    0.0656571269169357
    -0.0053334077729528    5.8544884580747532    0.0012821621476484
     0.0639774282558244    0.0006908469467942    6.0230320529523143
   C    N    H    Pb   Br
     1     1     6     1     3
Direct
  0.9398474069283475  0.8833548521948528  0.2470972223646647
  0.5314682166751624  0.5430433094194365  0.2110524063891699
  0.0890195739523293 -0.0038651365715539  0.2648480675232222
  0.7840037741965958 -0.0170657980162422  0.2618319444244274
 -0.0360182035621280  0.7629297910583293  0.1101616814756194
  0.1549953306104975  0.1779865856059395  0.7350189384168481
  0.7004926823927795  0.5640774398245333  0.1653122615448510
  0.4297123438948010  0.4689686998826770  0.0981824688567699
  0.4586408344400650  0.6055675805301968  0.5677293708915820
 -0.0355736793005221  0.2779019210873056 -0.1197458836841310
  0.4478016912643021  0.1092383741239773  0.5823517354896868
  0.9525177459159413  0.6678962252745020  0.5255033710762413
 
  0.00000000E+00  0.00000000E+00  0.00000000E+00
  0.00000000E+00  0.00000000E+00  0.00000000E+00
  0.00000000E+00  0.00000000E+00  0.00000000E+00
  0.00000000E+00  0.00000000E+00  0.00000000E+00
  0.00000000E+00  0.00000000E+00  0.00000000E+00
  0.00000000E+00  0.00000000E+00  0.00000000E+00
  0.00000000E+00  0.00000000E+00  0.00000000E+00
  0.00000000E+00  0.00000000E+00  0.00000000E+00
  0.00000000E+00  0.00000000E+00  0.00000000E+00
  0.00000000E+00  0.00000000E+00  0.00000000E+00
  0.00000000E+00  0.00000000E+00  0.00000000E+00
  0.00000000E+00  0.00000000E+00  0.00000000E+00
