MA-Pb-I                                 
   1.00000000000000     
     5.8892445321787328   -0.0048008041779134    0.0656571269169357
    -0.0053334077729528    5.8544884580747532    0.0012821621476484
     0.0639774282558244    0.0006908469467942    6.0230320529523143
   C    N    H    Pb   Br
     1     1     6     1     3
Direct
  0.9089234495331717  0.9054631051662992  0.3276921711369828 
  0.4528854096888098  0.5164283836930632  0.2393392565956016 
  0.9692653129505975  0.0436788854766426  0.4310455081600310 
  0.7269359895212973  0.1613537700601448  0.4081880945941397 
  0.0020780025248173  0.7058227510070401  0.8498150534216875 
  0.2078759771580778  0.1230706305901581  0.6791600583590247 
  0.4904692923278048  0.6554013209526832  0.1338027445295364 
  0.4074035802229953  0.3866389035901565  0.1344752184393552 
  0.4399578026977285  0.5468320847352643  0.5025132716123917 
  0.4352272726238539  0.4972012503325617  0.9832769846011953
  0.4159970891092727  0.9985715009710078  0.5336351900357424
  0.9598885390497535  0.4995712578389358  0.4264000332832606
 
  0.00000000E+00  0.00000000E+00  0.00000000E+00
  0.00000000E+00  0.00000000E+00  0.00000000E+00
  0.00000000E+00  0.00000000E+00  0.00000000E+00
  0.00000000E+00  0.00000000E+00  0.00000000E+00
  0.00000000E+00  0.00000000E+00  0.00000000E+00
  0.00000000E+00  0.00000000E+00  0.00000000E+00
  0.00000000E+00  0.00000000E+00  0.00000000E+00
  0.00000000E+00  0.00000000E+00  0.00000000E+00
  0.00000000E+00  0.00000000E+00  0.00000000E+00
  0.00000000E+00  0.00000000E+00  0.00000000E+00
  0.00000000E+00  0.00000000E+00  0.00000000E+00
  0.00000000E+00  0.00000000E+00  0.00000000E+00
