MA-Pb-I                                 
   1.00000000000000     
     6.2884187138843197    0.0009579558247489    0.0690993966769832
     0.0005978161223733    6.2287690412624563   -0.0003732067435118
     0.0697053521696059    0.0000445224912706    6.3737103126460282
   C    N    H    Pb   I 
     1     1     6     1     3
Direct
  0.4922665063539804  0.4354044942159173  0.3655980780440866
  0.5382633173535150  0.6166130333281470  0.5099057226052371
  0.3664717098518760  0.3336114383420749  0.4365002706550559
  0.6383841181494875  0.3405033345907398  0.3406374795039110
  0.4385330593122146  0.5001504853778087  0.2150841823223806
  0.5948808765249023  0.5636000646065527  0.6541140916903830
  0.4052544207795313  0.7123080828258385  0.5418657929606253
  0.6601501008134047  0.7204392675745408  0.4515124257291264
 -0.0339406080506200 -0.0085643863574736  0.9301337884585242
  0.9737747602857425 -0.0183444755569956  0.4326163109514975
  0.9579478677543281  0.4935939894454000 -0.0776782042757704
  0.4668925097055523 -0.0028548734899978  0.9359729038853933
 
  0.00000000E+00  0.00000000E+00  0.00000000E+00
  0.00000000E+00  0.00000000E+00  0.00000000E+00
  0.00000000E+00  0.00000000E+00  0.00000000E+00
  0.00000000E+00  0.00000000E+00  0.00000000E+00
  0.00000000E+00  0.00000000E+00  0.00000000E+00
  0.00000000E+00  0.00000000E+00  0.00000000E+00
  0.00000000E+00  0.00000000E+00  0.00000000E+00
  0.00000000E+00  0.00000000E+00  0.00000000E+00
  0.00000000E+00  0.00000000E+00  0.00000000E+00
  0.00000000E+00  0.00000000E+00  0.00000000E+00
  0.00000000E+00  0.00000000E+00  0.00000000E+00
  0.00000000E+00  0.00000000E+00  0.00000000E+00
