MA-Pb-I                                 
   1.00000000000000     
     5.8892445321787328   -0.0048008041779134    0.0656571269169357
    -0.0053334077729528    5.8544884580747532    0.0012821621476484
     0.0639774282558244    0.0006908469467942    6.0230320529523143
   C    N    H    Pb   Br
     1     1     6     1     3
Direct
  0.4341710228231456  0.9569244074573025  0.9849561259183663 
  0.0038134556601760  0.0362523395038923  0.2343418778473220 
  0.2827760294802118  0.0174924792639016  0.0676466293006038 
  0.1133620792161423  0.4215550268279127  0.1242806629609694 
  0.7888272084861375  0.4321390496197509  0.5136980694125955 
  0.3314905564867829  0.9575282301599759  0.0269801333512047 
  0.9974517446105255  0.9691691031685277  0.3996396362687633 
  0.1427623750812981  0.9662881351602259  0.1587867300568822 
  0.4581092851757642  0.5457410807184983  0.5458190752399542 
  0.4352272726238539  0.4972012503325617  0.9832769846011953
  0.4159970891092727  0.9985715009710078  0.5336351900357424
  0.9598885390497535  0.4995712578389358  0.4264000332832606
 
  0.00000000E+00  0.00000000E+00  0.00000000E+00
  0.00000000E+00  0.00000000E+00  0.00000000E+00
  0.00000000E+00  0.00000000E+00  0.00000000E+00
  0.00000000E+00  0.00000000E+00  0.00000000E+00
  0.00000000E+00  0.00000000E+00  0.00000000E+00
  0.00000000E+00  0.00000000E+00  0.00000000E+00
  0.00000000E+00  0.00000000E+00  0.00000000E+00
  0.00000000E+00  0.00000000E+00  0.00000000E+00
  0.00000000E+00  0.00000000E+00  0.00000000E+00
  0.00000000E+00  0.00000000E+00  0.00000000E+00
  0.00000000E+00  0.00000000E+00  0.00000000E+00
  0.00000000E+00  0.00000000E+00  0.00000000E+00
