MA-Pb-I                                 
   1.00000000000000     
     5.8892445321787328   -0.0048008041779134    0.0656571269169357
    -0.0053334077729528    5.8544884580747532    0.0012821621476484
     0.0639774282558244    0.0006908469467942    6.0230320529523143
   C    N    H    Pb   Br
     1     1     6     1     3
Direct
  0.1032785327086398  0.4375446142197275  0.5902171263030642
  0.2901430134423517  0.1460493263935370  0.1690520627355179
  0.0294276343433456  0.4848181478614768  0.7542332373146171
  0.0392167265588403  0.2839733695479272  0.5043808343855121
  0.7035379144383831  0.6642056698104130  0.0360800445126040
  0.8281026982989250  0.8456503322628821  0.4870880803328311
  0.1922704583307059  0.1742634452063975  0.0307657523982820
  0.3753941877332083 -0.0045635856270062  0.1300055900311857
  0.5365669433356931  0.4200785453419661  0.5877420400946514
  0.5476256047153555  0.4471809807964892  0.0844867367819937
  0.5721053307920182  0.9273735546802511  0.5948459006113482
  0.0779777076080001  0.7037723088562857  0.3942815960058258
 
  0.00000000E+00  0.00000000E+00  0.00000000E+00
  0.00000000E+00  0.00000000E+00  0.00000000E+00
  0.00000000E+00  0.00000000E+00  0.00000000E+00
  0.00000000E+00  0.00000000E+00  0.00000000E+00
  0.00000000E+00  0.00000000E+00  0.00000000E+00
  0.00000000E+00  0.00000000E+00  0.00000000E+00
  0.00000000E+00  0.00000000E+00  0.00000000E+00
  0.00000000E+00  0.00000000E+00  0.00000000E+00
  0.00000000E+00  0.00000000E+00  0.00000000E+00
  0.00000000E+00  0.00000000E+00  0.00000000E+00
  0.00000000E+00  0.00000000E+00  0.00000000E+00
  0.00000000E+00  0.00000000E+00  0.00000000E+00
