MA-Pb-I                                 
   1.0000000000000000     
     5.6267413476480952    0.0000416704727542    0.0620815770375229
    -0.0000317550626923    5.5940171136319288    0.0000254647194750
     0.0578866146782483   -0.0000342937909938    5.7648243532177101
   C    N    H    Pb   Cl
     1     1     6     1     3
Direct
  0.3448667268274453  0.4954884463127421  0.4639335413386804 
  0.5414116145964181  0.3360153309456929  0.5219478349687294 
  0.1987492464121685  0.4482654747427319  0.5773665987996486 
  0.2941010304622091  0.4714252149320585  0.2758776397349684 
  0.3987124138933931  0.6811370031636792  0.4979376982547764 
  0.4974167492181978  0.1569988086014074  0.4913537264577994 
  0.5956460190059846  0.3539177125512428  0.6998713824486413 
  0.6871569736035464  0.3702292784005398  0.4209785660499748 
  0.2159318196699322  0.4965890808765291  0.7794853092351476 
  0.9135858188955126  0.0000223702692494  0.4744099460480626
  0.9004629834686284  0.5000248740275239  0.0232973215355017
  0.4490472465535831  0.0000309138028598  0.9238306684389244

  0.00000000E+00  0.00000000E+00  0.00000000E+00
  0.00000000E+00  0.00000000E+00  0.00000000E+00
  0.00000000E+00  0.00000000E+00  0.00000000E+00
  0.00000000E+00  0.00000000E+00  0.00000000E+00
  0.00000000E+00  0.00000000E+00  0.00000000E+00
  0.00000000E+00  0.00000000E+00  0.00000000E+00
  0.00000000E+00  0.00000000E+00  0.00000000E+00
  0.00000000E+00  0.00000000E+00  0.00000000E+00
  0.00000000E+00  0.00000000E+00  0.00000000E+00
  0.00000000E+00  0.00000000E+00  0.00000000E+00
  0.00000000E+00  0.00000000E+00  0.00000000E+00
  0.00000000E+00  0.00000000E+00  0.00000000E+00
