MA-Pb-I                                 
   1.00000000000000     
     6.2884187138843197    0.0009579558247489    0.0690993966769832
     0.0005978161223733    6.2287690412624563   -0.0003732067435118
     0.0697053521696059    0.0000445224912706    6.3737103126460282
   C    N    H    Pb   I 
     1     1     6     1     3
Direct
  0.5224592217383575  0.6002124152871670  0.4912659458090545
  0.3319253292358982  0.4692110349100691  0.4583625368288404
  0.6280872569704078  0.5816430110415224  0.3516891505188730
  0.6026712319917039  0.5341232962963922  0.6243803422236441
  0.4749612993071762  0.7655770073755503  0.5217043419116564
  0.3695706835212241  0.3081200208579871  0.4723014069861596
  0.2681733051488056  0.4848530713025099  0.3154660786357183
  0.2179255070480343  0.4948864842437724  0.5725985447239283
  0.7832613362975394  0.2346155379245898 -0.0673371431229973
  0.7930103295106609  0.1485513176889609  0.4307374837928563
  0.2721032254068168  0.2506462407993621 -0.0650922841156771
  0.8206337567764341  0.7456951665717436 -0.0466531941869347
 
  0.00000000E+00  0.00000000E+00  0.00000000E+00
  0.00000000E+00  0.00000000E+00  0.00000000E+00
  0.00000000E+00  0.00000000E+00  0.00000000E+00
  0.00000000E+00  0.00000000E+00  0.00000000E+00
  0.00000000E+00  0.00000000E+00  0.00000000E+00
  0.00000000E+00  0.00000000E+00  0.00000000E+00
  0.00000000E+00  0.00000000E+00  0.00000000E+00
  0.00000000E+00  0.00000000E+00  0.00000000E+00
  0.00000000E+00  0.00000000E+00  0.00000000E+00
  0.00000000E+00  0.00000000E+00  0.00000000E+00
  0.00000000E+00  0.00000000E+00  0.00000000E+00
  0.00000000E+00  0.00000000E+00  0.00000000E+00
