MA-Pb-I                                 
   1.0000000000000000     
     6.2884187138843197    0.0009579558247489    0.0690993966769832
     0.0005978161223733    6.2287690412624563   -0.0003732067435118
     0.0697053521696059    0.0000445224912706    6.3737103126460282
   C    N    H    Pb   I 
     1     1     6     1     3
Direct
  0.5099991826206177  0.5842389626484351  0.5826273064579546 
  0.3588844666877437  0.4684999126902950  0.4480177370825432 
  0.6683257531293906  0.5276993172127352  0.5426323011022788 
  0.4742059230132880  0.5508799224637670  0.7520586475225212 
  0.4966788324613088  0.7569155088196989  0.5495721648650085 
  0.3654367547239500  0.3028892975024703  0.4744447725663255 
  0.3864996939530941  0.4960137999387227  0.2847273870484489 
  0.2046155595402739  0.5140036924458328  0.4772390924978622 
  0.8090103959824145  0.0100417395358835  0.6350188076253774 
  0.9094873486598019  0.9999820990246278  0.4751454839169895
  0.8992708791277906  0.4999580210910821  0.0236644354684188
  0.4323428768805755  0.9999948727175436  0.9224794036872126

  0.00000000E+00  0.00000000E+00  0.00000000E+00
  0.00000000E+00  0.00000000E+00  0.00000000E+00
  0.00000000E+00  0.00000000E+00  0.00000000E+00
  0.00000000E+00  0.00000000E+00  0.00000000E+00
  0.00000000E+00  0.00000000E+00  0.00000000E+00
  0.00000000E+00  0.00000000E+00  0.00000000E+00
  0.00000000E+00  0.00000000E+00  0.00000000E+00
  0.00000000E+00  0.00000000E+00  0.00000000E+00
  0.00000000E+00  0.00000000E+00  0.00000000E+00
  0.00000000E+00  0.00000000E+00  0.00000000E+00
  0.00000000E+00  0.00000000E+00  0.00000000E+00
  0.00000000E+00  0.00000000E+00  0.00000000E+00
