MA-Pb-I                                 
   1.00000000000000     
     6.2884187138843197    0.0009579558247489    0.0690993966769832
     0.0005978161223733    6.2287690412624563   -0.0003732067435118
     0.0697053521696059    0.0000445224912706    6.3737103126460282
   C    N    H    Pb   I 
     1     1     6     1     3
Direct
  0.3468227240986778  0.4398369813236916  0.5789425313945393
  0.4565953340230701  0.6013748170298149  0.4433211757964413
  0.2276341771718042  0.3534227049040640  0.4881921263314805
  0.2681109019126608  0.5220028709703582  0.7132045556902258
  0.4646491697858702  0.3251154874000249  0.6375594836284364
  0.3526620617433031  0.7125245355903884  0.3759433932056562
  0.5420011645473587  0.5320892323153372  0.3169547668903130
  0.5711286778774265  0.6936311861095107  0.5222642884126943
  0.9052234588780153 -0.0421516810185637  0.0183353609277506
 -0.0830011389319638  0.9474174092711837  0.5160430251918917
  0.8887707837836893  0.4577332327890123  0.0287461759243469
  0.4068738996141570  0.9681205618706132  0.0177157305648267
 
  0.00000000E+00  0.00000000E+00  0.00000000E+00
  0.00000000E+00  0.00000000E+00  0.00000000E+00
  0.00000000E+00  0.00000000E+00  0.00000000E+00
  0.00000000E+00  0.00000000E+00  0.00000000E+00
  0.00000000E+00  0.00000000E+00  0.00000000E+00
  0.00000000E+00  0.00000000E+00  0.00000000E+00
  0.00000000E+00  0.00000000E+00  0.00000000E+00
  0.00000000E+00  0.00000000E+00  0.00000000E+00
  0.00000000E+00  0.00000000E+00  0.00000000E+00
  0.00000000E+00  0.00000000E+00  0.00000000E+00
  0.00000000E+00  0.00000000E+00  0.00000000E+00
  0.00000000E+00  0.00000000E+00  0.00000000E+00
