MA-Pb-I                                 
   1.0000000000000000     
     6.2884187138843197    0.0009579558247489    0.0690993966769832
     0.0005978161223733    6.2287690412624563   -0.0003732067435118
     0.0697053521696059    0.0000445224912706    6.3737103126460282
   C    N    H    Pb   I 
     1     1     6     1     3
Direct
  0.4354063346450725  0.3700344783250130  0.5743094831446725 
  0.2697252024269763  0.4486342437010314  0.4303554608532325 
  0.3760979132983176  0.3878523108797476  0.7356435182670601 
  0.5818231199941785  0.4657983799378205  0.5521202414671416 
  0.4668829661392074  0.2001300530354729  0.5392527912222100 
  0.2346797260839147  0.6105061637015753  0.4575122767395932 
  0.1270172560138616  0.3615146054365378  0.4454539323622476 
  0.3149675443200737  0.4366783384309688  0.2737235224561581 
  0.2847951288588889  0.0100419984178517  0.9485785199236660 
  0.9094873486598019  0.9999820990246278  0.4751454839169895
  0.8992708791277906  0.4999580210910821  0.0236644354684188
  0.4323428768805755  0.9999948727175436  0.9224794036872126

  0.00000000E+00  0.00000000E+00  0.00000000E+00
  0.00000000E+00  0.00000000E+00  0.00000000E+00
  0.00000000E+00  0.00000000E+00  0.00000000E+00
  0.00000000E+00  0.00000000E+00  0.00000000E+00
  0.00000000E+00  0.00000000E+00  0.00000000E+00
  0.00000000E+00  0.00000000E+00  0.00000000E+00
  0.00000000E+00  0.00000000E+00  0.00000000E+00
  0.00000000E+00  0.00000000E+00  0.00000000E+00
  0.00000000E+00  0.00000000E+00  0.00000000E+00
  0.00000000E+00  0.00000000E+00  0.00000000E+00
  0.00000000E+00  0.00000000E+00  0.00000000E+00
  0.00000000E+00  0.00000000E+00  0.00000000E+00
