MA-Pb-I                                 
   1.0000000000000000     
     6.2884187138843197    0.0009579558247489    0.0690993966769832
     0.0005978161223733    6.2287690412624563   -0.0003732067435118
     0.0697053521696059    0.0000445224912706    6.3737103126460282
   C    N    H    Pb   I 
     1     1     6     1     3
Direct
  0.3309465645847512  0.6292609113090855  0.5898887868525059 
  0.4471822367381086  0.4453953839488702  0.5060218828216135 
  0.1787380323094719  0.5717426220024762  0.6480939755070496 
  0.3065005018684338  0.7464862442929843  0.4604222905888725 
  0.4234518505570091  0.7011989026714318  0.7216270166025471 
  0.3651912487009856  0.3717955421690766  0.3794172315778858 
  0.4747956580269924  0.3294116093192349  0.6242107831891088 
  0.5938464071674782  0.4879612980121402  0.4477025775355706 
  0.6880926107331999  0.3068869278481626  0.8202432087288428 
  0.9094873486598019  0.9999820990246278  0.4751454839169895
  0.8992708791277906  0.4999580210910821  0.0236644354684188
  0.4323428768805755  0.9999948727175436  0.9224794036872126

  0.00000000E+00  0.00000000E+00  0.00000000E+00
  0.00000000E+00  0.00000000E+00  0.00000000E+00
  0.00000000E+00  0.00000000E+00  0.00000000E+00
  0.00000000E+00  0.00000000E+00  0.00000000E+00
  0.00000000E+00  0.00000000E+00  0.00000000E+00
  0.00000000E+00  0.00000000E+00  0.00000000E+00
  0.00000000E+00  0.00000000E+00  0.00000000E+00
  0.00000000E+00  0.00000000E+00  0.00000000E+00
  0.00000000E+00  0.00000000E+00  0.00000000E+00
  0.00000000E+00  0.00000000E+00  0.00000000E+00
  0.00000000E+00  0.00000000E+00  0.00000000E+00
  0.00000000E+00  0.00000000E+00  0.00000000E+00
