MA-Pb-I                                 
   1.00000000000000     
     5.8857348584972646   -0.0000116429338373    0.0677019167604032
    -0.0000113721705701    5.8535748976198549   -0.0000048572736550
     0.0678468051824150   -0.0000044748208102    6.0066012361495211
   C    N    H    Pb   Br
     1     1     6     1     3
Direct
  0.7356381351798142  0.2084212136143391  0.8718348504164739
  0.3674161872041096  0.2339088327021846  0.3966528889965827
  0.6517074706238908  0.1100109417236019  0.0068572256777319
  0.8246009022196110  0.3705157452643762  0.8979737285390427
  0.8126081185398358  0.6940369972328307 -0.1076910446104337
 -0.0498513346512025  0.6916227562937797 -0.1092152510628271
  0.2136145185350818  0.1782768456946403  0.4658765362010976
  0.3791968228170824  0.1702158112908932  0.2356664059160155
  0.3719252307636021  0.6490918795790563  0.3877780031146891
  0.3790034534127415  0.6663107584903178 -0.1081071300123022
  0.6913054833591619  0.1049487983009866  0.6028206340172058
  0.8774345475686185  0.6539970098566376  0.3855506812309786
 
  0.00000000E+00  0.00000000E+00  0.00000000E+00
  0.00000000E+00  0.00000000E+00  0.00000000E+00
  0.00000000E+00  0.00000000E+00  0.00000000E+00
  0.00000000E+00  0.00000000E+00  0.00000000E+00
  0.00000000E+00  0.00000000E+00  0.00000000E+00
  0.00000000E+00  0.00000000E+00  0.00000000E+00
  0.00000000E+00  0.00000000E+00  0.00000000E+00
  0.00000000E+00  0.00000000E+00  0.00000000E+00
  0.00000000E+00  0.00000000E+00  0.00000000E+00
  0.00000000E+00  0.00000000E+00  0.00000000E+00
  0.00000000E+00  0.00000000E+00  0.00000000E+00
  0.00000000E+00  0.00000000E+00  0.00000000E+00
