MA-Pb-I                                 
   1.0000000000000000     
     5.8857348584972646   -0.0000116429338373    0.0677019167604032
    -0.0000113721705701    5.8535748976198549   -0.0000048572736550
     0.0678468051824150   -0.0000044748208102    6.0066012361495211
   C    N    H    Pb   Br
     1     1     6     1     3
Direct
  0.6370980517584740  0.3161354998193046  0.7256009745755365 
  0.2754810744682838  0.2722252155102693  0.3350688353990181 
  0.4747190944275861  0.3871904866688325  0.7721612771701329 
  0.8931070432746064  0.3470791811084952  0.7535762422941755 
  0.8876727089592109  0.7173332841781609  0.1695147494381387 
  0.1906732195078716  0.7704665028749550  0.0305818379666862 
  0.1850863706520710  0.1510020760151449  0.4303023163201433 
  0.4224691234157208  0.1951834623531219  0.2848567689911506 
  0.4711273164228000  0.5749160023759612  0.4832193247464023 
  0.4343825501137815  0.4999407920523851  0.9818407606070920
  0.4217797225331665  0.9999416700962840  0.5296464633737443
  0.9610032600387797  0.4999434169907246  0.4296279775420402

  0.00000000E+00  0.00000000E+00  0.00000000E+00
  0.00000000E+00  0.00000000E+00  0.00000000E+00
  0.00000000E+00  0.00000000E+00  0.00000000E+00
  0.00000000E+00  0.00000000E+00  0.00000000E+00
  0.00000000E+00  0.00000000E+00  0.00000000E+00
  0.00000000E+00  0.00000000E+00  0.00000000E+00
  0.00000000E+00  0.00000000E+00  0.00000000E+00
  0.00000000E+00  0.00000000E+00  0.00000000E+00
  0.00000000E+00  0.00000000E+00  0.00000000E+00
  0.00000000E+00  0.00000000E+00  0.00000000E+00
  0.00000000E+00  0.00000000E+00  0.00000000E+00
  0.00000000E+00  0.00000000E+00  0.00000000E+00
