MA-Pb-I                                 
   1.0000000000000000     
     6.2884187138843197    0.0009579558247489    0.0690993966769832
     0.0005978161223733    6.2287690412624563   -0.0003732067435118
     0.0697053521696059    0.0000445224912706    6.3737103126460282
   C    N    H    Pb   I 
     1     1     6     1     3
Direct
  0.4918749219160217  0.3940163553289840  0.5878558945065695 
  0.4761940683585598  0.5955064949890492  0.4716373259574919 
  0.6365045027932725  0.3153968968525752  0.5352735783478880 
  0.3511922722810399  0.2944035857704933  0.5506181372853631 
  0.4998999307500053  0.4272895591830944  0.7608176152722644 
  0.4675382600194723  0.5716964170061544  0.3057266460290867 
  0.6068712154058087  0.6961974966718394  0.5027525730624273 
  0.3421752088231944  0.6792456440701090  0.5134712535383870 
  0.9591264652490203  0.8333388559805752  0.9987825359531528 
  0.9094873486598019  0.9999820990246278  0.4751454839169895
  0.8992708791277906  0.4999580210910821  0.0236644354684188
  0.4323428768805755  0.9999948727175436  0.9224794036872126

  0.00000000E+00  0.00000000E+00  0.00000000E+00
  0.00000000E+00  0.00000000E+00  0.00000000E+00
  0.00000000E+00  0.00000000E+00  0.00000000E+00
  0.00000000E+00  0.00000000E+00  0.00000000E+00
  0.00000000E+00  0.00000000E+00  0.00000000E+00
  0.00000000E+00  0.00000000E+00  0.00000000E+00
  0.00000000E+00  0.00000000E+00  0.00000000E+00
  0.00000000E+00  0.00000000E+00  0.00000000E+00
  0.00000000E+00  0.00000000E+00  0.00000000E+00
  0.00000000E+00  0.00000000E+00  0.00000000E+00
  0.00000000E+00  0.00000000E+00  0.00000000E+00
  0.00000000E+00  0.00000000E+00  0.00000000E+00
