MA-Pb-I                                 
   1.00000000000000     
     6.2884187138843197    0.0009579558247489    0.0690993966769832
     0.0005978161223733    6.2287690412624563   -0.0003732067435118
     0.0697053521696059    0.0000445224912706    6.3737103126460282
   C    N    H    Pb   I 
     1     1     6     1     3
Direct
  0.5233930576381559  0.4996903216309337  0.5791380195287477
  0.3183349212846210  0.5380266528702261  0.4744275925133483
  0.5903258443515538  0.3448288336679997  0.5266623160615171
  0.4966299456677120  0.4964848603324346  0.7503514503104758
  0.6344183324899006  0.6303450395463234  0.5388313448618303
  0.2085117340530421  0.4167834381336164  0.5108426458411081
  0.3342802507910208  0.5417008412278937  0.3119391623308071
  0.2473366295094525  0.6855389744248772  0.5169196586744470
  0.9731353585687749  0.9926907622253330  0.9648154911309640
  0.9780341571963008  0.0056685407445601  0.4693949329309854
  0.9780410104823797  0.4917049356051741 -0.0321054852273762
  0.4682764353451984 -0.0152119049860892  0.9565676855406104
 
  0.00000000E+00  0.00000000E+00  0.00000000E+00
  0.00000000E+00  0.00000000E+00  0.00000000E+00
  0.00000000E+00  0.00000000E+00  0.00000000E+00
  0.00000000E+00  0.00000000E+00  0.00000000E+00
  0.00000000E+00  0.00000000E+00  0.00000000E+00
  0.00000000E+00  0.00000000E+00  0.00000000E+00
  0.00000000E+00  0.00000000E+00  0.00000000E+00
  0.00000000E+00  0.00000000E+00  0.00000000E+00
  0.00000000E+00  0.00000000E+00  0.00000000E+00
  0.00000000E+00  0.00000000E+00  0.00000000E+00
  0.00000000E+00  0.00000000E+00  0.00000000E+00
  0.00000000E+00  0.00000000E+00  0.00000000E+00
