MA-Pb-I                                 
   1.0000000000000000     
     5.8857348584972646   -0.0000116429338373    0.0677019167604032
    -0.0000113721705701    5.8535748976198549   -0.0000048572736550
     0.0678468051824150   -0.0000044748208102    6.0066012361495211
   C    N    H    Pb   Br
     1     1     6     1     3
Direct
  0.3528701125638578  0.8456872598275821  0.8232608136092119 
  0.0886373929480446  0.1764127603872161  0.4767465514843239 
  0.4792660276322686  0.8785321469680774  0.9518255240102411 
  0.4328475793874741  0.7868997338588484  0.0887097121225930 
  0.9175135892822913  0.8409652372633916  0.5983820253040257 
  0.5126637444572333  0.2060750763231715  0.1171113053290580 
  0.0107889541690720  0.2616426107484432  0.6131692809047140 
  0.9669783817240331  0.1585190068292834  0.3545128881691272 
  0.3921387445213284  0.4202430543729280  0.5203651103942851 
  0.4343825501137815  0.4999407920523851  0.9818407606070920
  0.4217797225331665  0.9999416700962840  0.5296464633737443
  0.9610032600387797  0.4999434169907246  0.4296279775420402

  0.00000000E+00  0.00000000E+00  0.00000000E+00
  0.00000000E+00  0.00000000E+00  0.00000000E+00
  0.00000000E+00  0.00000000E+00  0.00000000E+00
  0.00000000E+00  0.00000000E+00  0.00000000E+00
  0.00000000E+00  0.00000000E+00  0.00000000E+00
  0.00000000E+00  0.00000000E+00  0.00000000E+00
  0.00000000E+00  0.00000000E+00  0.00000000E+00
  0.00000000E+00  0.00000000E+00  0.00000000E+00
  0.00000000E+00  0.00000000E+00  0.00000000E+00
  0.00000000E+00  0.00000000E+00  0.00000000E+00
  0.00000000E+00  0.00000000E+00  0.00000000E+00
  0.00000000E+00  0.00000000E+00  0.00000000E+00
