MA-Pb-I                                 
   1.0000000000000000     
     6.2884187138843197    0.0009579558247489    0.0690993966769832
     0.0005978161223733    6.2287690412624563   -0.0003732067435118
     0.0697053521696059    0.0000445224912706    6.3737103126460282
   C    N    H    Pb   I 
     1     1     6     1     3
Direct
  0.4723176097150056  0.6792014049371158  0.4740751054680453 
  0.6739657885907576  0.5723866746639590  0.5218197028261260 
  0.4948676560027138  0.7688270854261858  0.3280532999123067 
  0.4313463147955778  0.7879009148307240  0.6067654663531230 
  0.3461555946067859  0.5579517191853510  0.4524204671504803 
  0.7991361191499681  0.6818943533192722  0.5443730442433725 
  0.7192468511291331  0.4664060983100234  0.3997496573859093 
  0.6645953319880737  0.4838642001147168  0.6589304002189973 
  0.1239668191438685  0.6435032710870159  0.1048774124609730 
  0.9094873486598019  0.9999820990246278  0.4751454839169895
  0.8992708791277906  0.4999580210910821  0.0236644354684188
  0.4323428768805755  0.9999948727175436  0.9224794036872126

  0.00000000E+00  0.00000000E+00  0.00000000E+00
  0.00000000E+00  0.00000000E+00  0.00000000E+00
  0.00000000E+00  0.00000000E+00  0.00000000E+00
  0.00000000E+00  0.00000000E+00  0.00000000E+00
  0.00000000E+00  0.00000000E+00  0.00000000E+00
  0.00000000E+00  0.00000000E+00  0.00000000E+00
  0.00000000E+00  0.00000000E+00  0.00000000E+00
  0.00000000E+00  0.00000000E+00  0.00000000E+00
  0.00000000E+00  0.00000000E+00  0.00000000E+00
  0.00000000E+00  0.00000000E+00  0.00000000E+00
  0.00000000E+00  0.00000000E+00  0.00000000E+00
  0.00000000E+00  0.00000000E+00  0.00000000E+00
