MA-Pb-I                                 
   1.00000000000000     
     5.8892445321787328   -0.0048008041779134    0.0656571269169357
    -0.0053334077729528    5.8544884580747532    0.0012821621476484
     0.0639774282558244    0.0006908469467942    6.0230320529523143
   C    N    H    Pb   Br
     1     1     6     1     3
Direct
  0.9755424913563864  0.0315683309590429  0.5946761264451368 
  0.5412267309890963  0.3298531038677630  0.7395064157207774 
  0.0259161207751972  0.8703885838689481  0.5246030127107413 
  0.6169331486351366  0.8157062186104087  0.6943709333833603 
  0.0068066013240282  0.1449166920353967  0.2276106496421279 
  0.1444489087772972  0.8708032501337872  0.3508048399572865 
  0.5449730624053106  0.2085454894410354  0.8704048824301895 
  0.5039979250781654  0.4811801248078152  0.8145032236477165 
  0.4386981550485743  0.4348031661626032  0.4623324084368494 
  0.4352272726238539  0.4972012503325617  0.9832769846011953
  0.4159970891092727  0.9985715009710078  0.5336351900357424
  0.9598885390497535  0.4995712578389358  0.4264000332832606
 
  0.00000000E+00  0.00000000E+00  0.00000000E+00
  0.00000000E+00  0.00000000E+00  0.00000000E+00
  0.00000000E+00  0.00000000E+00  0.00000000E+00
  0.00000000E+00  0.00000000E+00  0.00000000E+00
  0.00000000E+00  0.00000000E+00  0.00000000E+00
  0.00000000E+00  0.00000000E+00  0.00000000E+00
  0.00000000E+00  0.00000000E+00  0.00000000E+00
  0.00000000E+00  0.00000000E+00  0.00000000E+00
  0.00000000E+00  0.00000000E+00  0.00000000E+00
  0.00000000E+00  0.00000000E+00  0.00000000E+00
  0.00000000E+00  0.00000000E+00  0.00000000E+00
  0.00000000E+00  0.00000000E+00  0.00000000E+00
