MA-Pb-I                                 
   1.00000000000000     
     5.8892445321787328   -0.0048008041779134    0.0656571269169357
    -0.0053334077729528    5.8544884580747532    0.0012821621476484
     0.0639774282558244    0.0006908469467942    6.0230320529523143
   C    N    H    Pb   Br
     1     1     6     1     3
Direct
  0.7846776585947081  0.7227526639299018  0.2855868022340285 
  0.0475380354074535  0.5221183071545656  0.1247939664726618 
  0.9122250840998696  0.8527161843099358  0.3019511628606413 
  0.8531653730756807  0.9863559850459420  0.1611823357065564 
  0.2748010971587791  0.5290075750871865  0.4633441391953115 
  0.5988324394575548  0.1048473450611003  0.6765358617716628 
  0.0325425827940053  0.6354200445364551  0.9876741881362674 
  0.9319591852564166  0.3965140265055483  0.0969467666891641 
  0.6016983070952185  0.4737738260353493  0.5392226317833322 
  0.4352272726238539  0.4972012503325617  0.9832769846011953
  0.4159970891092727  0.9985715009710078  0.5336351900357424
  0.9598885390497535  0.4995712578389358  0.4264000332832606
 
  0.00000000E+00  0.00000000E+00  0.00000000E+00
  0.00000000E+00  0.00000000E+00  0.00000000E+00
  0.00000000E+00  0.00000000E+00  0.00000000E+00
  0.00000000E+00  0.00000000E+00  0.00000000E+00
  0.00000000E+00  0.00000000E+00  0.00000000E+00
  0.00000000E+00  0.00000000E+00  0.00000000E+00
  0.00000000E+00  0.00000000E+00  0.00000000E+00
  0.00000000E+00  0.00000000E+00  0.00000000E+00
  0.00000000E+00  0.00000000E+00  0.00000000E+00
  0.00000000E+00  0.00000000E+00  0.00000000E+00
  0.00000000E+00  0.00000000E+00  0.00000000E+00
  0.00000000E+00  0.00000000E+00  0.00000000E+00
