MA-Pb-I                                 
   1.0000000000000000     
     5.8857348584972646   -0.0000116429338373    0.0677019167604032
    -0.0000113721705701    5.8535748976198549   -0.0000048572736550
     0.0678468051824150   -0.0000044748208102    6.0066012361495211
   C    N    H    Pb   Br
     1     1     6     1     3
Direct
  0.7386437952663902  0.0846652278052362  0.1519725075156217 
  0.8656618423470227  0.9231325568567542  0.9260660531448299 
  0.6389348598252929  0.9341659480291433  0.1834636760845036 
  0.9565076231322716  0.3302324836049365  0.4959942107133797 
  0.2747030399876360  0.2467256130291550  0.1042899771999444 
  0.3792009154406515  0.0284323423574326  0.2225319484448282 
  0.7062307909290040  0.9426056200164967  0.8477193392995683 
  0.9503541794334045  0.0725434590324108  0.9022803384035794 
  0.6020711399203855  0.5192768563420980  0.5773568992756728 
  0.4343825501137815  0.4999407920523851  0.9818407606070920
  0.4217797225331665  0.9999416700962840  0.5296464633737443
  0.9610032600387797  0.4999434169907246  0.4296279775420402

  0.00000000E+00  0.00000000E+00  0.00000000E+00
  0.00000000E+00  0.00000000E+00  0.00000000E+00
  0.00000000E+00  0.00000000E+00  0.00000000E+00
  0.00000000E+00  0.00000000E+00  0.00000000E+00
  0.00000000E+00  0.00000000E+00  0.00000000E+00
  0.00000000E+00  0.00000000E+00  0.00000000E+00
  0.00000000E+00  0.00000000E+00  0.00000000E+00
  0.00000000E+00  0.00000000E+00  0.00000000E+00
  0.00000000E+00  0.00000000E+00  0.00000000E+00
  0.00000000E+00  0.00000000E+00  0.00000000E+00
  0.00000000E+00  0.00000000E+00  0.00000000E+00
  0.00000000E+00  0.00000000E+00  0.00000000E+00
