MA-Pb-I                                 
   1.0000000000000000     
     6.2884187138843197    0.0009579558247489    0.0690993966769832
     0.0005978161223733    6.2287690412624563   -0.0003732067435118
     0.0697053521696059    0.0000445224912706    6.3737103126460282
   C    N    H    Pb   I 
     1     1     6     1     3
Direct
  0.5966577639749902  0.3933501058796301  0.5236079885919787 
  0.3688102281984244  0.4424359424326686  0.5184116134559111 
  0.6739645663452474  0.4954871164559785  0.4076109012739021 
  0.6205165268983724  0.2238273180846884  0.4812553478207762 
  0.6593650674956550  0.4260279429542790  0.6851233648291122 
  0.3017728528584405  0.4131188745857006  0.3673662679922304 
  0.3382179278875241  0.6025757409892252  0.5584454649149745 
  0.2847863186006466  0.3511856405160201  0.6248857526299308 
  0.7927271549469193  0.0111469734442788  0.3462694963191435 
  0.9094873486598019  0.9999820990246278  0.4751454839169895
  0.8992708791277906  0.4999580210910821  0.0236644354684188
  0.4323428768805755  0.9999948727175436  0.9224794036872126

  0.00000000E+00  0.00000000E+00  0.00000000E+00
  0.00000000E+00  0.00000000E+00  0.00000000E+00
  0.00000000E+00  0.00000000E+00  0.00000000E+00
  0.00000000E+00  0.00000000E+00  0.00000000E+00
  0.00000000E+00  0.00000000E+00  0.00000000E+00
  0.00000000E+00  0.00000000E+00  0.00000000E+00
  0.00000000E+00  0.00000000E+00  0.00000000E+00
  0.00000000E+00  0.00000000E+00  0.00000000E+00
  0.00000000E+00  0.00000000E+00  0.00000000E+00
  0.00000000E+00  0.00000000E+00  0.00000000E+00
  0.00000000E+00  0.00000000E+00  0.00000000E+00
  0.00000000E+00  0.00000000E+00  0.00000000E+00
