MA-Pb-I                                 
   1.00000000000000     
     5.8892445321787328   -0.0048008041779134    0.0656571269169357
    -0.0053334077729528    5.8544884580747532    0.0012821621476484
     0.0639774282558244    0.0006908469467942    6.0230320529523143
   C    N    H    Pb   Br
     1     1     6     1     3
Direct
  0.4812947177916115  0.2440979427928373  0.0906270528928584
  0.2792547391467108  0.2063699933854722  0.0165163432161133
  0.6126953503014195  0.1478274961418317 -0.0024848972173941
  0.0353019451261337  0.5805367251705780  0.9072075578773746
  0.0284548079236125  0.5955191224975526  0.0404116525302411
  0.5813747862413510  0.8545956318972729  0.7710221479811987
  0.2542022104721560  0.1015151508469944  0.8827883964438143
  0.1473530747816729  0.3007232110523126  0.0861659659698936
  0.5336249817918830  0.4810048326613565  0.4606077416440572
  0.5669401719274817  0.6585110159648497 -0.0443134250073919
  0.5540242089796670 -0.0038445194496745  0.5002011208846073
  0.0319958543180602  0.4754669174265788  0.4774517919440832
 
  0.00000000E+00  0.00000000E+00  0.00000000E+00
  0.00000000E+00  0.00000000E+00  0.00000000E+00
  0.00000000E+00  0.00000000E+00  0.00000000E+00
  0.00000000E+00  0.00000000E+00  0.00000000E+00
  0.00000000E+00  0.00000000E+00  0.00000000E+00
  0.00000000E+00  0.00000000E+00  0.00000000E+00
  0.00000000E+00  0.00000000E+00  0.00000000E+00
  0.00000000E+00  0.00000000E+00  0.00000000E+00
  0.00000000E+00  0.00000000E+00  0.00000000E+00
  0.00000000E+00  0.00000000E+00  0.00000000E+00
  0.00000000E+00  0.00000000E+00  0.00000000E+00
  0.00000000E+00  0.00000000E+00  0.00000000E+00
