MA-Pb-I                                 
   1.00000000000000     
     5.6267413476480952    0.0000416704727542    0.0620815770375229
    -0.0000317550626923    5.5940171136319288    0.0000254647194750
     0.0578866146782483   -0.0000342937909938    5.7648243532177101
   C    N    H    Pb   Cl
     1     1     6     1     3
Direct
  0.4616920666188504  0.5463687191282982  0.6119080830199080
  0.4105977153629529  0.3152784716940085  0.4978328441395171
  0.4382449705327059  0.5265522210328145  0.8015707600064977
  0.3363014359342320  0.6828825891284713  0.5495662356752834
  0.6460480566599919  0.6002396379554855  0.5697516344433666
  0.2359178867542134  0.2511780665286375  0.5290964212142979
  0.5265190226091172  0.1817068225197162  0.5552499609667517
  0.4330874343429265  0.3189859753716358  0.3177342357611263
 -0.0554477295983646  0.9804259135508141  0.0206188716764553
  0.9379710240525549 -0.0201539254579923  0.5252564744695255
  0.9509414498166666  0.4778526389528647  0.0216697331551163
  0.4473938297217547 -0.0153707130404874  0.0172314811082235
 
  0.00000000E+00  0.00000000E+00  0.00000000E+00
  0.00000000E+00  0.00000000E+00  0.00000000E+00
  0.00000000E+00  0.00000000E+00  0.00000000E+00
  0.00000000E+00  0.00000000E+00  0.00000000E+00
  0.00000000E+00  0.00000000E+00  0.00000000E+00
  0.00000000E+00  0.00000000E+00  0.00000000E+00
  0.00000000E+00  0.00000000E+00  0.00000000E+00
  0.00000000E+00  0.00000000E+00  0.00000000E+00
  0.00000000E+00  0.00000000E+00  0.00000000E+00
  0.00000000E+00  0.00000000E+00  0.00000000E+00
  0.00000000E+00  0.00000000E+00  0.00000000E+00
  0.00000000E+00  0.00000000E+00  0.00000000E+00
