MA-Pb-I                                 
   1.0000000000000000     
     5.6267413476480952    0.0000416704727542    0.0620815770375229
    -0.0000317550626923    5.5940171136319288    0.0000254647194750
     0.0578866146782483   -0.0000342937909938    5.7648243532177101
   C    N    H    Pb   Cl
     1     1     6     1     3
Direct
  0.5162546500703162  0.5645403172138357  0.5882422479205796 
  0.4201663850048242  0.3461363679083408  0.4858020900582921 
  0.4296091625598138  0.5906988355022383  0.7563364984670415 
  0.4777649405382497  0.7155214824331908  0.4688921445730930 
  0.7097020108503446  0.5449527827968217  0.6149906023880591 
  0.2359148535722262  0.3577560196869299  0.4569088419758238 
  0.4537030969353832  0.1975904548193979  0.5940982363152411 
  0.4943010859797746  0.3094529502904226  0.3252858288204609 
  0.7687549283789397  0.7192190486134631  0.3053923090949835 
  0.9135858188955126  0.0000223702692494  0.4744099460480626
  0.9004629834686284  0.5000248740275239  0.0232973215355017
  0.4490472465535831  0.0000309138028598  0.9238306684389244

  0.00000000E+00  0.00000000E+00  0.00000000E+00
  0.00000000E+00  0.00000000E+00  0.00000000E+00
  0.00000000E+00  0.00000000E+00  0.00000000E+00
  0.00000000E+00  0.00000000E+00  0.00000000E+00
  0.00000000E+00  0.00000000E+00  0.00000000E+00
  0.00000000E+00  0.00000000E+00  0.00000000E+00
  0.00000000E+00  0.00000000E+00  0.00000000E+00
  0.00000000E+00  0.00000000E+00  0.00000000E+00
  0.00000000E+00  0.00000000E+00  0.00000000E+00
  0.00000000E+00  0.00000000E+00  0.00000000E+00
  0.00000000E+00  0.00000000E+00  0.00000000E+00
  0.00000000E+00  0.00000000E+00  0.00000000E+00
