MA-Pb-I                                 
   1.0000000000000000     
     5.8857348584972646   -0.0000116429338373    0.0677019167604032
    -0.0000113721705701    5.8535748976198549   -0.0000048572736550
     0.0678468051824150   -0.0000044748208102    6.0066012361495211
   C    N    H    Pb   Br
     1     1     6     1     3
Direct
  0.1019953223107695  0.7550504373179581  0.3928001974178728 
  0.3419052487793054  0.5894366550740460  0.2067831965596398 
  0.2398869629509479  0.7878958554804316  0.5089495524098201 
  0.1133085011158148  0.5202502933250968  0.4469122838650296 
  0.7969106572030733  0.1398681733136198  0.9300761353787155 
  0.8180409359198686  0.9984429737898364  0.6162739642940738 
  0.4928587704572233  0.6074983112014759  0.1128551454439135 
  0.2181544683362288  0.5475662601356757  0.0927885289506529 
  0.4369661934734258  0.4958230482113518  0.4796889333373250 
  0.4343825501137815  0.4999407920523851  0.9818407606070920
  0.4217797225331665  0.9999416700962840  0.5296464633737443
  0.9610032600387797  0.4999434169907246  0.4296279775420402

  0.00000000E+00  0.00000000E+00  0.00000000E+00
  0.00000000E+00  0.00000000E+00  0.00000000E+00
  0.00000000E+00  0.00000000E+00  0.00000000E+00
  0.00000000E+00  0.00000000E+00  0.00000000E+00
  0.00000000E+00  0.00000000E+00  0.00000000E+00
  0.00000000E+00  0.00000000E+00  0.00000000E+00
  0.00000000E+00  0.00000000E+00  0.00000000E+00
  0.00000000E+00  0.00000000E+00  0.00000000E+00
  0.00000000E+00  0.00000000E+00  0.00000000E+00
  0.00000000E+00  0.00000000E+00  0.00000000E+00
  0.00000000E+00  0.00000000E+00  0.00000000E+00
  0.00000000E+00  0.00000000E+00  0.00000000E+00
