MA-Pb-I                                 
   1.0000000000000000     
     5.8857348584972646   -0.0000116429338373    0.0677019167604032
    -0.0000113721705701    5.8535748976198549   -0.0000048572736550
     0.0678468051824150   -0.0000044748208102    6.0066012361495211
   C    N    H    Pb   Br
     1     1     6     1     3
Direct
  0.1769684231689662  0.3408921786257406  0.2057208375396200 
  0.1568605679368219  0.2383523616969345  0.4243845782689674 
  0.2818452543287943  0.4875917040784070  0.1731064505978319 
  0.0830228402950945  0.6747350620573629  0.3818108876384989 
  0.6982197459913888  0.0471046469432292  0.8194327919495348 
  0.7185951853927006  0.8004812507259133  0.9391880980284069 
  0.3231080697449253  0.1831919270669378  0.3889619511864930 
  0.0659689577149971  0.0964569129274833  0.4652081827846025 
  0.4211692125812849  0.5486024430830837  0.4535761583080073 
  0.4343825501137815  0.4999407920523851  0.9818407606070920
  0.4217797225331665  0.9999416700962840  0.5296464633737443
  0.9610032600387797  0.4999434169907246  0.4296279775420402

  0.00000000E+00  0.00000000E+00  0.00000000E+00
  0.00000000E+00  0.00000000E+00  0.00000000E+00
  0.00000000E+00  0.00000000E+00  0.00000000E+00
  0.00000000E+00  0.00000000E+00  0.00000000E+00
  0.00000000E+00  0.00000000E+00  0.00000000E+00
  0.00000000E+00  0.00000000E+00  0.00000000E+00
  0.00000000E+00  0.00000000E+00  0.00000000E+00
  0.00000000E+00  0.00000000E+00  0.00000000E+00
  0.00000000E+00  0.00000000E+00  0.00000000E+00
  0.00000000E+00  0.00000000E+00  0.00000000E+00
  0.00000000E+00  0.00000000E+00  0.00000000E+00
  0.00000000E+00  0.00000000E+00  0.00000000E+00
