MA-Pb-I                                 
   1.00000000000000     
     5.8892445321787328   -0.0048008041779134    0.0656571269169357
    -0.0053334077729528    5.8544884580747532    0.0012821621476484
     0.0639774282558244    0.0006908469467942    6.0230320529523143
   C    N    H    Pb   Br
     1     1     6     1     3
Direct
  0.0976408438090126  0.5139333077122270  0.9053698164333046 
  0.8018821462524148  0.1153966529148425  0.9852054527123191 
  0.1027317121744682  0.5859798652975954  0.0733282377186569 
  0.2754739518947821  0.0306555409591682  0.7262840183878618 
  0.9157007049617942  0.7826383238733372  0.8090074859694907 
  0.0460211925836689  0.5196964116606475  0.9011751267375896 
  0.7039094405562365  0.2646003764814522  0.9870972022431768 
  0.8017032086333664  0.0591798830907757  0.8216511338232986 
  0.4695040640581328  0.4505732874261759  0.4184731752121185 
  0.4352272726238539  0.4972012503325617  0.9832769846011953
  0.4159970891092727  0.9985715009710078  0.5336351900357424
  0.9598885390497535  0.4995712578389358  0.4264000332832606
 
  0.00000000E+00  0.00000000E+00  0.00000000E+00
  0.00000000E+00  0.00000000E+00  0.00000000E+00
  0.00000000E+00  0.00000000E+00  0.00000000E+00
  0.00000000E+00  0.00000000E+00  0.00000000E+00
  0.00000000E+00  0.00000000E+00  0.00000000E+00
  0.00000000E+00  0.00000000E+00  0.00000000E+00
  0.00000000E+00  0.00000000E+00  0.00000000E+00
  0.00000000E+00  0.00000000E+00  0.00000000E+00
  0.00000000E+00  0.00000000E+00  0.00000000E+00
  0.00000000E+00  0.00000000E+00  0.00000000E+00
  0.00000000E+00  0.00000000E+00  0.00000000E+00
  0.00000000E+00  0.00000000E+00  0.00000000E+00
