MA-Pb-I                                 
   1.00000000000000     
     5.8857348584972646   -0.0000116429338373    0.0677019167604032
    -0.0000113721705701    5.8535748976198549   -0.0000048572736550
     0.0678468051824150   -0.0000044748208102    6.0066012361495211
   C    N    H    Pb   Br
     1     1     6     1     3
Direct
  0.0974300215667025 -0.0287877152085381  0.5943806912963998
  0.6806824514693853 -0.0349927954726271  0.0499989091693214
  0.1210021079906162  0.1215395199824314  0.7018048421179462
  0.6011977961587992  0.9413911340650488 -0.0984989450683470
  0.9434982043431880 -0.0166210087626979  0.4917049963351271
  0.1085729893650779  0.8101656247410822  0.6875449508192649
  0.7744291715604852  0.1126877254112772  0.0434630082052057
  0.7844855888253740  0.8270329419294440  0.0770435457533959
  0.3671021870648133  0.4697394444004943  0.3750216113694865
  0.3659477336153688  0.4670978846312152 -0.1186445046424629
  0.3620219890583755 -0.0295111705718735  0.3773904212803670
  0.8650045162960673  0.4714951014619643  0.3778260470817830
 
  0.00000000E+00  0.00000000E+00  0.00000000E+00
  0.00000000E+00  0.00000000E+00  0.00000000E+00
  0.00000000E+00  0.00000000E+00  0.00000000E+00
  0.00000000E+00  0.00000000E+00  0.00000000E+00
  0.00000000E+00  0.00000000E+00  0.00000000E+00
  0.00000000E+00  0.00000000E+00  0.00000000E+00
  0.00000000E+00  0.00000000E+00  0.00000000E+00
  0.00000000E+00  0.00000000E+00  0.00000000E+00
  0.00000000E+00  0.00000000E+00  0.00000000E+00
  0.00000000E+00  0.00000000E+00  0.00000000E+00
  0.00000000E+00  0.00000000E+00  0.00000000E+00
  0.00000000E+00  0.00000000E+00  0.00000000E+00
