MA-Pb-I                                 
   1.00000000000000     
     5.6267413476480952    0.0000416704727542    0.0620815770375229
    -0.0000317550626923    5.5940171136319288    0.0000254647194750
     0.0578866146782483   -0.0000342937909938    5.7648243532177101
   C    N    H    Pb   Cl
     1     1     6     1     3
Direct
  0.5895645282461310  0.4268952995268112  0.5678394887547469
  0.4358768875019593  0.4243929207682669  0.3615130783710768
  0.5505764465522935  0.5893111961761164  0.6697037938388407
  0.7781274149271227  0.4276040041969921  0.5092270523700672
  0.5527510813340805  0.2656194073469265  0.6719180199122560
  0.4642396734789836  0.5747553563602678  0.2549214269853623
  0.2556573136385585  0.4258859314125487  0.4059563945091350
  0.4626623056149237  0.2702679027355483  0.2588636596415594
 -0.0260745283482108  0.9299269637267498  0.0248063474769216
  0.9740907665101656 -0.0699596281514150  0.5208580086076982
  0.9710210755196643  0.4293666462904149  0.0263681309646428
  0.4757866719603520 -0.0708984263084246  0.0318403972548262
 
  0.00000000E+00  0.00000000E+00  0.00000000E+00
  0.00000000E+00  0.00000000E+00  0.00000000E+00
  0.00000000E+00  0.00000000E+00  0.00000000E+00
  0.00000000E+00  0.00000000E+00  0.00000000E+00
  0.00000000E+00  0.00000000E+00  0.00000000E+00
  0.00000000E+00  0.00000000E+00  0.00000000E+00
  0.00000000E+00  0.00000000E+00  0.00000000E+00
  0.00000000E+00  0.00000000E+00  0.00000000E+00
  0.00000000E+00  0.00000000E+00  0.00000000E+00
  0.00000000E+00  0.00000000E+00  0.00000000E+00
  0.00000000E+00  0.00000000E+00  0.00000000E+00
  0.00000000E+00  0.00000000E+00  0.00000000E+00
