MA-Pb-I                                 
   1.0000000000000000     
     5.6267413476480952    0.0000416704727542    0.0620815770375229
    -0.0000317550626923    5.5940171136319288    0.0000254647194750
     0.0578866146782483   -0.0000342937909938    5.7648243532177101
   C    N    H    Pb   Cl
     1     1     6     1     3
Direct
  0.6097761287237641  0.4076046227562584  0.5725746694131482 
  0.4390112517643899  0.4094456288932068  0.3769648711109224 
  0.5432462728797923  0.5263457254428456  0.7064466771888880 
  0.7841768464044846  0.4704229644450157  0.5080807721837444 
  0.6242016940223991  0.2259339659174292  0.6454355153702004 
  0.4205042033458103  0.5796358385542586  0.3020566297630709 
  0.2702847857033873  0.3500613136825936  0.4310346167565189 
  0.4903267917688464  0.3003448032725591  0.2425371122904629 
  0.0396556134054266  0.8532945530169992  0.0971469985876790 
  0.9135858188955126  0.0000223702692494  0.4744099460480626
  0.9004629834686284  0.5000248740275239  0.0232973215355017
  0.4490472465535831  0.0000309138028598  0.9238306684389244

  0.00000000E+00  0.00000000E+00  0.00000000E+00
  0.00000000E+00  0.00000000E+00  0.00000000E+00
  0.00000000E+00  0.00000000E+00  0.00000000E+00
  0.00000000E+00  0.00000000E+00  0.00000000E+00
  0.00000000E+00  0.00000000E+00  0.00000000E+00
  0.00000000E+00  0.00000000E+00  0.00000000E+00
  0.00000000E+00  0.00000000E+00  0.00000000E+00
  0.00000000E+00  0.00000000E+00  0.00000000E+00
  0.00000000E+00  0.00000000E+00  0.00000000E+00
  0.00000000E+00  0.00000000E+00  0.00000000E+00
  0.00000000E+00  0.00000000E+00  0.00000000E+00
  0.00000000E+00  0.00000000E+00  0.00000000E+00
