MA-Pb-I                                 
   1.0000000000000000     
     6.2884187138843197    0.0009579558247489    0.0690993966769832
     0.0005978161223733    6.2287690412624563   -0.0003732067435118
     0.0697053521696059    0.0000445224912706    6.3737103126460282
   C    N    H    Pb   I 
     1     1     6     1     3
Direct
  0.4264509664741335  0.5085505971142835  0.3801126507865366 
  0.3868329990824959  0.6092953899567807  0.5865874061417548 
  0.5540842095830405  0.3941778884116100  0.4022998913986679 
  0.4745173954435932  0.6318919514064606  0.2635901591473983 
  0.2797995509251838  0.4267199293402988  0.3264063397897278 
  0.5223367180029558  0.6899567190413158  0.6440390266141277 
  0.3398408617304983  0.4976816615830114  0.7028520518784989 
  0.2671177104381765  0.7202672009953770  0.5778190473189820 
  0.4488500829026695  0.3179555611379348  0.7902278580324203 
  0.9094873486598019  0.9999820990246278  0.4751454839169895
  0.8992708791277906  0.4999580210910821  0.0236644354684188
  0.4323428768805755  0.9999948727175436  0.9224794036872126

  0.00000000E+00  0.00000000E+00  0.00000000E+00
  0.00000000E+00  0.00000000E+00  0.00000000E+00
  0.00000000E+00  0.00000000E+00  0.00000000E+00
  0.00000000E+00  0.00000000E+00  0.00000000E+00
  0.00000000E+00  0.00000000E+00  0.00000000E+00
  0.00000000E+00  0.00000000E+00  0.00000000E+00
  0.00000000E+00  0.00000000E+00  0.00000000E+00
  0.00000000E+00  0.00000000E+00  0.00000000E+00
  0.00000000E+00  0.00000000E+00  0.00000000E+00
  0.00000000E+00  0.00000000E+00  0.00000000E+00
  0.00000000E+00  0.00000000E+00  0.00000000E+00
  0.00000000E+00  0.00000000E+00  0.00000000E+00
