MA-Pb-I                                 
   1.00000000000000     
     5.8892445321787328   -0.0048008041779134    0.0656571269169357
    -0.0053334077729528    5.8544884580747532    0.0012821621476484
     0.0639774282558244    0.0006908469467942    6.0230320529523143
   C    N    H    Pb   Br
     1     1     6     1     3
Direct
  0.5934037281673491  0.7257713348976356  0.8420820748290142
  0.3744210183789349  0.6673491683354782  0.7522054332817497
  0.7071610908710074  0.7854300523596678  0.7057684224131364
  0.6632676828541620  0.5747106364769782  0.9266227388464429
  0.0570353603603372  0.2736735462031178  0.1165885695854609
  0.5852275399881864 -0.1312830635056307 -0.0383656676814530
  0.2930172072185443  0.8165628800118491  0.7129112616218202
  0.2702669280718150  0.5633959480238512  0.8518394331676060
  0.4210740383715770  0.5707723779428344  0.3550779088116278
  0.0644492511926093  0.1882106300380198 -0.1152717001367551
  0.4229895743676497  0.0742829984466295  0.3534090882466699
  0.9341836894130655  0.5710337667044370  0.3392834016829029
 
  0.00000000E+00  0.00000000E+00  0.00000000E+00
  0.00000000E+00  0.00000000E+00  0.00000000E+00
  0.00000000E+00  0.00000000E+00  0.00000000E+00
  0.00000000E+00  0.00000000E+00  0.00000000E+00
  0.00000000E+00  0.00000000E+00  0.00000000E+00
  0.00000000E+00  0.00000000E+00  0.00000000E+00
  0.00000000E+00  0.00000000E+00  0.00000000E+00
  0.00000000E+00  0.00000000E+00  0.00000000E+00
  0.00000000E+00  0.00000000E+00  0.00000000E+00
  0.00000000E+00  0.00000000E+00  0.00000000E+00
  0.00000000E+00  0.00000000E+00  0.00000000E+00
  0.00000000E+00  0.00000000E+00  0.00000000E+00
