MA-Pb-I                                 
   1.00000000000000     
     5.8857348584972646   -0.0000116429338373    0.0677019167604032
    -0.0000113721705701    5.8535748976198549   -0.0000048572736550
     0.0678468051824150   -0.0000044748208102    6.0066012361495211
   C    N    H    Pb   Br
     1     1     6     1     3
Direct
  0.2660677867385567  0.9939694966195844  0.8702763643486885
  0.0757018990593865  0.0454308723545494  0.8599816441295921
  0.4401743002792238  0.9254244920912856  0.8778552544239142
 -0.0303444882341261  0.4941483358884679 -0.1148581674177307
  0.0868455385571240 -0.0059047563379827  0.3819609586689518
  0.9497698838221573 -0.0093357882947340  0.3761315072446438
  0.0416955238614448  0.5053140286540193  0.6351846256154446
  0.1094089802185969  0.4898301167319911  0.9004340313809828
  0.5145736798021546  0.4988055647573111  0.3870370880039366
  0.5150692232809152  0.4971809784194670  0.8930021843136494
  0.5096473091413404  0.0014557059397743  0.3818537549826791
  0.0153675641113612  0.4987456949971679  0.3819573064847329
 
  0.00000000E+00  0.00000000E+00  0.00000000E+00
  0.00000000E+00  0.00000000E+00  0.00000000E+00
  0.00000000E+00  0.00000000E+00  0.00000000E+00
  0.00000000E+00  0.00000000E+00  0.00000000E+00
  0.00000000E+00  0.00000000E+00  0.00000000E+00
  0.00000000E+00  0.00000000E+00  0.00000000E+00
  0.00000000E+00  0.00000000E+00  0.00000000E+00
  0.00000000E+00  0.00000000E+00  0.00000000E+00
  0.00000000E+00  0.00000000E+00  0.00000000E+00
  0.00000000E+00  0.00000000E+00  0.00000000E+00
  0.00000000E+00  0.00000000E+00  0.00000000E+00
  0.00000000E+00  0.00000000E+00  0.00000000E+00
