MA-Pb-I                                 
   1.0000000000000000     
     5.8857348584972646   -0.0000116429338373    0.0677019167604032
    -0.0000113721705701    5.8535748976198549   -0.0000048572736550
     0.0678468051824150   -0.0000044748208102    6.0066012361495211
   C    N    H    Pb   Br
     1     1     6     1     3
Direct
  0.3064626305993775  0.8553679765540673  0.7683590889172971 
  0.1392559801221696  0.6954940420978891  0.8986237697626468 
  0.4812209333074143  0.8746801356283698  0.7166853541553478 
  0.9474623771480692  0.4625590708618428  0.8564097574982673 
  0.1545012802511407  0.1659320521588460  0.4458101007657661 
  0.9350597654406275  0.9895055074216885  0.1146890282968732 
  0.1478492104805145  0.6846415017486537  0.7204551791654088 
  0.9739886757972457  0.6653021249098812  0.9414879288414688 
  0.5910108148058499  0.5417564513002711  0.4271811432535368 
  0.4343825501137815  0.4999407920523851  0.9818407606070920
  0.4217797225331665  0.9999416700962840  0.5296464633737443
  0.9610032600387797  0.4999434169907246  0.4296279775420402

  0.00000000E+00  0.00000000E+00  0.00000000E+00
  0.00000000E+00  0.00000000E+00  0.00000000E+00
  0.00000000E+00  0.00000000E+00  0.00000000E+00
  0.00000000E+00  0.00000000E+00  0.00000000E+00
  0.00000000E+00  0.00000000E+00  0.00000000E+00
  0.00000000E+00  0.00000000E+00  0.00000000E+00
  0.00000000E+00  0.00000000E+00  0.00000000E+00
  0.00000000E+00  0.00000000E+00  0.00000000E+00
  0.00000000E+00  0.00000000E+00  0.00000000E+00
  0.00000000E+00  0.00000000E+00  0.00000000E+00
  0.00000000E+00  0.00000000E+00  0.00000000E+00
  0.00000000E+00  0.00000000E+00  0.00000000E+00
