MA-Pb-I                                 
   1.00000000000000     
     5.8892445321787328   -0.0048008041779134    0.0656571269169357
    -0.0053334077729528    5.8544884580747532    0.0012821621476484
     0.0639774282558244    0.0006908469467942    6.0230320529523143
   C    N    H    Pb   Br
     1     1     6     1     3
Direct
  0.3735755886405796  0.1098754868698330  0.7340660664146756 
  0.7375290547633122  0.5142911225539725  0.6528927498171960 
  0.3109253380364303  0.0344689975622161  0.8883886576021673 
  0.6920036183403523  0.0979005538359100  0.9650496497100225 
  0.1088887646870536  0.9217788253685413  0.6376291072680187 
  0.4754107274551505  0.6306336516130358  0.0816586823771386 
  0.8755620017876642  0.4497691660713052  0.7458863171822563 
  0.8026515285401659  0.5736450874644836  0.5040756045886984 
  0.4469809566343633  0.4819382671504342  0.4538065074877892 
  0.4352272726238539  0.4972012503325617  0.9832769846011953
  0.4159970891092727  0.9985715009710078  0.5336351900357424
  0.9598885390497535  0.4995712578389358  0.4264000332832606
 
  0.00000000E+00  0.00000000E+00  0.00000000E+00
  0.00000000E+00  0.00000000E+00  0.00000000E+00
  0.00000000E+00  0.00000000E+00  0.00000000E+00
  0.00000000E+00  0.00000000E+00  0.00000000E+00
  0.00000000E+00  0.00000000E+00  0.00000000E+00
  0.00000000E+00  0.00000000E+00  0.00000000E+00
  0.00000000E+00  0.00000000E+00  0.00000000E+00
  0.00000000E+00  0.00000000E+00  0.00000000E+00
  0.00000000E+00  0.00000000E+00  0.00000000E+00
  0.00000000E+00  0.00000000E+00  0.00000000E+00
  0.00000000E+00  0.00000000E+00  0.00000000E+00
  0.00000000E+00  0.00000000E+00  0.00000000E+00
