MA-Pb-I                                 
   1.00000000000000     
     5.8857348584972646   -0.0000116429338373    0.0677019167604032
    -0.0000113721705701    5.8535748976198549   -0.0000048572736550
     0.0678468051824150   -0.0000044748208102    6.0066012361495211
   C    N    H    Pb   Br
     1     1     6     1     3
Direct
  0.8118308191933630  0.9390810377793349  0.5986513561642571
  0.1257768890827622  0.9394373062196537  0.9475740988218295
  0.9616458635492170  0.0146821591114571  0.5107929618922831
  0.2838619554914877  0.9985767030650119 -0.0974912013937848
  0.8280988856254629  0.7575349415103241  0.6419296220611037
  0.7399422076299486  0.0495239310793954  0.7319224949493223
  0.0612895491109870  0.0418391687604501  0.0720907810755581
  0.1378190855845618  0.7747528322660858  0.0037996962792737
  0.5577190968543909  0.4416580420014581  0.3519999680110909
  0.5582217954969251  0.4420577346315900  0.8603108636014224
  0.5636210840227962  0.9420962054975051  0.3638307872026313
  0.0619545237988260  0.4438871256244770  0.3470619211852086
 
  0.00000000E+00  0.00000000E+00  0.00000000E+00
  0.00000000E+00  0.00000000E+00  0.00000000E+00
  0.00000000E+00  0.00000000E+00  0.00000000E+00
  0.00000000E+00  0.00000000E+00  0.00000000E+00
  0.00000000E+00  0.00000000E+00  0.00000000E+00
  0.00000000E+00  0.00000000E+00  0.00000000E+00
  0.00000000E+00  0.00000000E+00  0.00000000E+00
  0.00000000E+00  0.00000000E+00  0.00000000E+00
  0.00000000E+00  0.00000000E+00  0.00000000E+00
  0.00000000E+00  0.00000000E+00  0.00000000E+00
  0.00000000E+00  0.00000000E+00  0.00000000E+00
  0.00000000E+00  0.00000000E+00  0.00000000E+00
