MA-Pb-I                                 
   1.0000000000000000     
     5.8857348584972646   -0.0000116429338373    0.0677019167604032
    -0.0000113721705701    5.8535748976198549   -0.0000048572736550
     0.0678468051824150   -0.0000044748208102    6.0066012361495211
   C    N    H    Pb   Br
     1     1     6     1     3
Direct
  0.8858688830038053  0.8794982891974825  0.4130734625593423 
  0.2043104435388147  0.9204332234885981  0.9320590228720776 
  0.8407093858924239  0.0549613102276826  0.4405861285398686 
  0.3818899704220421  0.8886453253072251  0.0019695684261816 
  0.8722930097943635  0.8301991876039203  0.5381372205102618 
  0.7651368239760400  0.0233015589059518  0.5782667226739842 
  0.2413887011275338  0.9632338708925094  0.1015552626870665 
  0.2385081559027129  0.7512340716635579  0.9158006906509633 
  0.4445108490972649  0.4737944711204170  0.4699100694075782 
  0.4343825501137815  0.4999407920523851  0.9818407606070920
  0.4217797225331665  0.9999416700962840  0.5296464633737443
  0.9610032600387797  0.4999434169907246  0.4296279775420402

  0.00000000E+00  0.00000000E+00  0.00000000E+00
  0.00000000E+00  0.00000000E+00  0.00000000E+00
  0.00000000E+00  0.00000000E+00  0.00000000E+00
  0.00000000E+00  0.00000000E+00  0.00000000E+00
  0.00000000E+00  0.00000000E+00  0.00000000E+00
  0.00000000E+00  0.00000000E+00  0.00000000E+00
  0.00000000E+00  0.00000000E+00  0.00000000E+00
  0.00000000E+00  0.00000000E+00  0.00000000E+00
  0.00000000E+00  0.00000000E+00  0.00000000E+00
  0.00000000E+00  0.00000000E+00  0.00000000E+00
  0.00000000E+00  0.00000000E+00  0.00000000E+00
  0.00000000E+00  0.00000000E+00  0.00000000E+00
