MA-Pb-I                                 
   1.0000000000000000     
     5.8857348584972646   -0.0000116429338373    0.0677019167604032
    -0.0000113721705701    5.8535748976198549   -0.0000048572736550
     0.0678468051824150   -0.0000044748208102    6.0066012361495211
   C    N    H    Pb   Br
     1     1     6     1     3
Direct
  0.6999439859328970  0.1398711246564028  0.9001918853205202 
  0.8100878915926031  0.8215457794692720  0.1769004073752824 
  0.6478549211255027  0.1845557268069227  0.7302695078186322 
  0.7849615941236097  0.6391718448887518  0.7368838776564008 
  0.3953972885375573  0.1509857903358638  0.9909145791979939 
  0.3439000855837819  0.2575861855586272  0.8031536579692276 
  0.9435182796868853  0.7836128490456442  0.0642367830863620 
  0.8695787497133163  0.7877592342512153  0.3362160595822720 
  0.4885679370993015  0.5797945433986861  0.3432954971897204 
  0.4343825501137815  0.4999407920523851  0.9818407606070920
  0.4217797225331665  0.9999416700962840  0.5296464633737443
  0.9610032600387797  0.4999434169907246  0.4296279775420402

  0.00000000E+00  0.00000000E+00  0.00000000E+00
  0.00000000E+00  0.00000000E+00  0.00000000E+00
  0.00000000E+00  0.00000000E+00  0.00000000E+00
  0.00000000E+00  0.00000000E+00  0.00000000E+00
  0.00000000E+00  0.00000000E+00  0.00000000E+00
  0.00000000E+00  0.00000000E+00  0.00000000E+00
  0.00000000E+00  0.00000000E+00  0.00000000E+00
  0.00000000E+00  0.00000000E+00  0.00000000E+00
  0.00000000E+00  0.00000000E+00  0.00000000E+00
  0.00000000E+00  0.00000000E+00  0.00000000E+00
  0.00000000E+00  0.00000000E+00  0.00000000E+00
  0.00000000E+00  0.00000000E+00  0.00000000E+00
