MA-Pb-I                                 
   1.0000000000000000     
     5.8857348584972646   -0.0000116429338373    0.0677019167604032
    -0.0000113721705701    5.8535748976198549   -0.0000048572736550
     0.0678468051824150   -0.0000044748208102    6.0066012361495211
   C    N    H    Pb   Br
     1     1     6     1     3
Direct
  0.8773506271288187  0.0142492512371348  0.6123082973233079 
  0.2572267989098881  0.1334456703443005  0.7516601027006722 
  0.9628422982954699  0.1072186964290566  0.7450917870334097 
  0.0573852202280276  0.4091352953662499  0.8629009037565764 
  0.4458086739317296  0.5828289497011515  0.1350223889992452 
  0.0419570560869285  0.8751513591587881  0.5063541977795206 
  0.4133990070962377  0.0536685505159324  0.7860333547656030 
  0.1768167131099754  0.0347439349770395  0.6339555768191628 
  0.5163585656115089  0.5028489577509719  0.4658897897579766 
  0.4343825501137815  0.4999407920523851  0.9818407606070920
  0.4217797225331665  0.9999416700962840  0.5296464633737443
  0.9610032600387797  0.4999434169907246  0.4296279775420402

  0.00000000E+00  0.00000000E+00  0.00000000E+00
  0.00000000E+00  0.00000000E+00  0.00000000E+00
  0.00000000E+00  0.00000000E+00  0.00000000E+00
  0.00000000E+00  0.00000000E+00  0.00000000E+00
  0.00000000E+00  0.00000000E+00  0.00000000E+00
  0.00000000E+00  0.00000000E+00  0.00000000E+00
  0.00000000E+00  0.00000000E+00  0.00000000E+00
  0.00000000E+00  0.00000000E+00  0.00000000E+00
  0.00000000E+00  0.00000000E+00  0.00000000E+00
  0.00000000E+00  0.00000000E+00  0.00000000E+00
  0.00000000E+00  0.00000000E+00  0.00000000E+00
  0.00000000E+00  0.00000000E+00  0.00000000E+00
