MA-Pb-I                                 
   1.0000000000000000     
     5.6267413476480952    0.0000416704727542    0.0620815770375229
    -0.0000317550626923    5.5940171136319288    0.0000254647194750
     0.0578866146782483   -0.0000342937909938    5.7648243532177101
   C    N    H    Pb   Cl
     1     1     6     1     3
Direct
  0.4938885866695413  0.3857835186315435  0.4405326308949817 
  0.5880850480989871  0.5917583182352540  0.5675311910473160 
  0.6317080817800158  0.3237594080112419  0.3238870903843880 
  0.3367362193999193  0.4393945002337851  0.3358893641593209 
  0.4467954200498683  0.2452282710100755  0.5691696527347834 
  0.6346538194866205  0.7302726455936117  0.4510683490101390 
  0.7380026604590748  0.5479495823729807  0.6701185138657209 
  0.4667784473345898  0.6607066016428789  0.6821520441442832 
  0.6886704131182555  0.6898672131644272  0.2937158892822134 
  0.9135858188955126  0.0000223702692494  0.4744099460480626
  0.9004629834686284  0.5000248740275239  0.0232973215355017
  0.4490472465535831  0.0000309138028598  0.9238306684389244

  0.00000000E+00  0.00000000E+00  0.00000000E+00
  0.00000000E+00  0.00000000E+00  0.00000000E+00
  0.00000000E+00  0.00000000E+00  0.00000000E+00
  0.00000000E+00  0.00000000E+00  0.00000000E+00
  0.00000000E+00  0.00000000E+00  0.00000000E+00
  0.00000000E+00  0.00000000E+00  0.00000000E+00
  0.00000000E+00  0.00000000E+00  0.00000000E+00
  0.00000000E+00  0.00000000E+00  0.00000000E+00
  0.00000000E+00  0.00000000E+00  0.00000000E+00
  0.00000000E+00  0.00000000E+00  0.00000000E+00
  0.00000000E+00  0.00000000E+00  0.00000000E+00
  0.00000000E+00  0.00000000E+00  0.00000000E+00
