MA-Pb-I                                 
   1.00000000000000     
     5.8857348584972646   -0.0000116429338373    0.0677019167604032
    -0.0000113721705701    5.8535748976198549   -0.0000048572736550
     0.0678468051824150   -0.0000044748208102    6.0066012361495211
   C    N    H    Pb   Br
     1     1     6     1     3
Direct
  0.1868402993795044  0.7598472171995935  0.7444103551128677
  0.0100174481757927 -0.0940557124603893  0.6563335491617683
  0.2991125916633123  0.8609948587455819  0.8527192521067667
  0.1098208901056075  0.6161306893896301  0.8469251188104290
  0.2750987689475417  0.1748991772504440  0.3710194513819586
  0.8623351832593221  0.4826413363200921  0.1089391674811626
  0.0039092450937717  0.0617549398097300  0.7346919109380678
  0.0240016304812447  0.9326313762294602  0.4856948755056864
  0.5060840356716123  0.6315259900156702  0.4945734105513721
  0.6232893639661016  0.5394218962753117  0.9569977096673167
  0.5113704267679382  0.1315769734432170  0.4524060392670465
  0.0342118245583652  0.4986903756746296  0.3311885212985524
 
  0.00000000E+00  0.00000000E+00  0.00000000E+00
  0.00000000E+00  0.00000000E+00  0.00000000E+00
  0.00000000E+00  0.00000000E+00  0.00000000E+00
  0.00000000E+00  0.00000000E+00  0.00000000E+00
  0.00000000E+00  0.00000000E+00  0.00000000E+00
  0.00000000E+00  0.00000000E+00  0.00000000E+00
  0.00000000E+00  0.00000000E+00  0.00000000E+00
  0.00000000E+00  0.00000000E+00  0.00000000E+00
  0.00000000E+00  0.00000000E+00  0.00000000E+00
  0.00000000E+00  0.00000000E+00  0.00000000E+00
  0.00000000E+00  0.00000000E+00  0.00000000E+00
  0.00000000E+00  0.00000000E+00  0.00000000E+00
