MA-Pb-I                                 
   1.0000000000000000     
     5.8857348584972646   -0.0000116429338373    0.0677019167604032
    -0.0000113721705701    5.8535748976198549   -0.0000048572736550
     0.0678468051824150   -0.0000044748208102    6.0066012361495211
   C    N    H    Pb   Br
     1     1     6     1     3
Direct
  0.3972670282868266  0.6228113424590638  0.6888690272257836 
  0.1106901667852438  0.0141988488333578  0.5572978967369571 
  0.3983477824299388  0.7675473233026824  0.8012697680483916 
  0.0901816918070255  0.8684031536257291  0.8957644417355668 
  0.4585182069503211  0.2256673268815841  0.4321525540681992 
  0.5809858232194158  0.6466287336616807  0.1291353155452255 
  0.9595499138370309  0.0138148122295174  0.6526506333000293 
  0.0983747980133303  0.8820804706973792  0.4456948693291870 
  0.5350107640552521  0.5550812270625789  0.4919496537707786 
  0.4343825501137815  0.4999407920523851  0.9818407606070920
  0.4217797225331665  0.9999416700962840  0.5296464633737443
  0.9610032600387797  0.4999434169907246  0.4296279775420402

  0.00000000E+00  0.00000000E+00  0.00000000E+00
  0.00000000E+00  0.00000000E+00  0.00000000E+00
  0.00000000E+00  0.00000000E+00  0.00000000E+00
  0.00000000E+00  0.00000000E+00  0.00000000E+00
  0.00000000E+00  0.00000000E+00  0.00000000E+00
  0.00000000E+00  0.00000000E+00  0.00000000E+00
  0.00000000E+00  0.00000000E+00  0.00000000E+00
  0.00000000E+00  0.00000000E+00  0.00000000E+00
  0.00000000E+00  0.00000000E+00  0.00000000E+00
  0.00000000E+00  0.00000000E+00  0.00000000E+00
  0.00000000E+00  0.00000000E+00  0.00000000E+00
  0.00000000E+00  0.00000000E+00  0.00000000E+00
