MA-Pb-I                                 
   1.00000000000000     
     5.8857348584972646   -0.0000116429338373    0.0677019167604032
    -0.0000113721705701    5.8535748976198549   -0.0000048572736550
     0.0678468051824150   -0.0000044748208102    6.0066012361495211
   C    N    H    Pb   Br
     1     1     6     1     3
Direct
  0.1835787918800766  0.3445965784945808 -0.0372446231232477
  0.8873456953610955  0.9087331427522493  0.1349205851412925
  0.2350477288100363  0.1780477040886991  0.8894423469274721
  0.0666119476105272  0.4419317633458812  0.8545874595458423
  0.0524263691217693 -0.0347628456155639  0.1136645456921646
  0.1187995949098681  0.3360158841950064  0.1405809061525608
  0.7831439102977460  0.0449122804382668  0.0993664750273104
  0.8715285596940072  0.8816300440584073  0.3032371981551185
  0.4275185872215752  0.5000572322494645  0.4700048812284106
  0.4634625516339247  0.5288144325656101  0.9652409854225101
  0.4065441394190895 -0.0056975796438534  0.4639908529584027
 -0.0864082885747622  0.4917551584909273  0.4703133553628978
 
  0.00000000E+00  0.00000000E+00  0.00000000E+00
  0.00000000E+00  0.00000000E+00  0.00000000E+00
  0.00000000E+00  0.00000000E+00  0.00000000E+00
  0.00000000E+00  0.00000000E+00  0.00000000E+00
  0.00000000E+00  0.00000000E+00  0.00000000E+00
  0.00000000E+00  0.00000000E+00  0.00000000E+00
  0.00000000E+00  0.00000000E+00  0.00000000E+00
  0.00000000E+00  0.00000000E+00  0.00000000E+00
  0.00000000E+00  0.00000000E+00  0.00000000E+00
  0.00000000E+00  0.00000000E+00  0.00000000E+00
  0.00000000E+00  0.00000000E+00  0.00000000E+00
  0.00000000E+00  0.00000000E+00  0.00000000E+00
