MA-Pb-I                                 
   1.00000000000000     
     5.8857348584972646   -0.0000116429338373    0.0677019167604032
    -0.0000113721705701    5.8535748976198549   -0.0000048572736550
     0.0678468051824150   -0.0000044748208102    6.0066012361495211
   C    N    H    Pb   Br
     1     1     6     1     3
Direct
  0.5912337046589751  0.8184362400982012 -0.0031520914004399
  0.0216319211556196  0.2225286410071743  0.0336176188973105
  0.6895981836996931  0.7972749804867052  0.8399275290625698
 -0.1224333375476562  0.3058287283674530  0.0858309401455032
  0.4911371166868804  0.9783945412430147  0.0058231835782319
  0.6958752573430041  0.7901830236540256  0.1452968570821440
  0.9932431394334920  0.1447238597333130  0.8845644355877024
  0.0562876053493804  0.1038508024945381  0.1547628185810450
  0.3546541655640933  0.5545591300247682  0.5002177918823925
  0.3645159071785021  0.5625914067520031  0.0026325425676394
  0.3549318234038093  0.0562928487328020  0.5009602157058139
 -0.1399035317520012  0.5581014579238274  0.4952127493726887
 
  0.00000000E+00  0.00000000E+00  0.00000000E+00
  0.00000000E+00  0.00000000E+00  0.00000000E+00
  0.00000000E+00  0.00000000E+00  0.00000000E+00
  0.00000000E+00  0.00000000E+00  0.00000000E+00
  0.00000000E+00  0.00000000E+00  0.00000000E+00
  0.00000000E+00  0.00000000E+00  0.00000000E+00
  0.00000000E+00  0.00000000E+00  0.00000000E+00
  0.00000000E+00  0.00000000E+00  0.00000000E+00
  0.00000000E+00  0.00000000E+00  0.00000000E+00
  0.00000000E+00  0.00000000E+00  0.00000000E+00
  0.00000000E+00  0.00000000E+00  0.00000000E+00
  0.00000000E+00  0.00000000E+00  0.00000000E+00
