MA-Pb-I                                 
   1.00000000000000     
     5.6267413476480952    0.0000416704727542    0.0620815770375229
    -0.0000317550626923    5.5940171136319288    0.0000254647194750
     0.0578866146782483   -0.0000342937909938    5.7648243532177101
   C    N    H    Pb   Cl
     1     1     6     1     3
Direct
  0.4678276623978813  0.4024513668225537  0.4062270042427966
  0.4691673284964887  0.5536670003884128  0.6180696171257902
  0.2971370699137190  0.4272427226219944  0.3185033842891553
  0.4885753333206341  0.2121415506398895  0.4543573659522637
  0.6188783155114733  0.4561477799288733  0.2909500274627673
  0.3169297724428247  0.5232557994963165  0.7249552829102530
  0.4689802240412057  0.7351700243486086  0.5825212521745682
  0.6195106313887423  0.5227453241991582  0.7187010896969799
 -0.0214496615212668  0.0188915487397126  0.9511211205956391
  0.9791851868831709  0.0207346763627081  0.4553052760445863
  0.9747209676672538  0.5177933582941914 -0.0568876740634493
  0.4791867045300454  0.0212586233143292  0.9475305344369657
 
  0.00000000E+00  0.00000000E+00  0.00000000E+00
  0.00000000E+00  0.00000000E+00  0.00000000E+00
  0.00000000E+00  0.00000000E+00  0.00000000E+00
  0.00000000E+00  0.00000000E+00  0.00000000E+00
  0.00000000E+00  0.00000000E+00  0.00000000E+00
  0.00000000E+00  0.00000000E+00  0.00000000E+00
  0.00000000E+00  0.00000000E+00  0.00000000E+00
  0.00000000E+00  0.00000000E+00  0.00000000E+00
  0.00000000E+00  0.00000000E+00  0.00000000E+00
  0.00000000E+00  0.00000000E+00  0.00000000E+00
  0.00000000E+00  0.00000000E+00  0.00000000E+00
  0.00000000E+00  0.00000000E+00  0.00000000E+00
