MA-Pb-I                                 
   1.0000000000000000     
     5.6267413476480952    0.0000416704727542    0.0620815770375229
    -0.0000317550626923    5.5940171136319288    0.0000254647194750
     0.0578866146782483   -0.0000342937909938    5.7648243532177101
   C    N    H    Pb   Cl
     1     1     6     1     3
Direct
  0.4598083665586200  0.4548370403242702  0.3868356333778440 
  0.4998589394406864  0.5363632880545260  0.6300981422879246 
  0.2949290007963358  0.5312491369819976  0.3283260454289351 
  0.4473890111121062  0.2589769066469153  0.3844304709936106 
  0.6065778218125037  0.5163554331504281  0.2719650901016025 
  0.3638986489229825  0.4807937448078951  0.7456199505890878 
  0.5133753240007904  0.7224751491799627  0.6400146504181683 
  0.6538139485092727  0.4708013554820632  0.6979699723693575 
  0.0559024250011535  0.9395695624290497  0.9045563892792930 
  0.9135858188955126  0.0000223702692494  0.4744099460480626
  0.9004629834686284  0.5000248740275239  0.0232973215355017
  0.4490472465535831  0.0000309138028598  0.9238306684389244

  0.00000000E+00  0.00000000E+00  0.00000000E+00
  0.00000000E+00  0.00000000E+00  0.00000000E+00
  0.00000000E+00  0.00000000E+00  0.00000000E+00
  0.00000000E+00  0.00000000E+00  0.00000000E+00
  0.00000000E+00  0.00000000E+00  0.00000000E+00
  0.00000000E+00  0.00000000E+00  0.00000000E+00
  0.00000000E+00  0.00000000E+00  0.00000000E+00
  0.00000000E+00  0.00000000E+00  0.00000000E+00
  0.00000000E+00  0.00000000E+00  0.00000000E+00
  0.00000000E+00  0.00000000E+00  0.00000000E+00
  0.00000000E+00  0.00000000E+00  0.00000000E+00
  0.00000000E+00  0.00000000E+00  0.00000000E+00
