MA-Pb-I                                 
   1.00000000000000     
     5.8857348584972646   -0.0000116429338373    0.0677019167604032
    -0.0000113721705701    5.8535748976198549   -0.0000048572736550
     0.0678468051824150   -0.0000044748208102    6.0066012361495211
   C    N    H    Pb   Br
     1     1     6     1     3
Direct
  0.5237688124098671  0.7006725989380571  0.9633181459133706
  0.0758182628173129 -0.0399266759926080  0.7274644410602650
  0.3596143180013807  0.6452598241194859  0.8696795892122070
 -0.0802286826068082  0.1037912274673169  0.7237573772272069
  0.0679739912758343  0.8380332025932753  0.6104992657379699
  0.6720794472953431  0.2043123153296887 -0.0124281481701935
  0.0828681785491481 -0.1135839814118116  0.9339496052196244
  0.2409919297776515  0.0347065027670712  0.7192930008776596
  0.5139733045065222  0.7092311229380192  0.3897564556565844
  0.6631856463195823  0.4467722146719749 -0.1508727703269190
  0.4962097994978631  0.1564085568122650  0.3554954250569907
  0.0074292573521091  0.7107412185424884  0.3667238242392771
 
  0.00000000E+00  0.00000000E+00  0.00000000E+00
  0.00000000E+00  0.00000000E+00  0.00000000E+00
  0.00000000E+00  0.00000000E+00  0.00000000E+00
  0.00000000E+00  0.00000000E+00  0.00000000E+00
  0.00000000E+00  0.00000000E+00  0.00000000E+00
  0.00000000E+00  0.00000000E+00  0.00000000E+00
  0.00000000E+00  0.00000000E+00  0.00000000E+00
  0.00000000E+00  0.00000000E+00  0.00000000E+00
  0.00000000E+00  0.00000000E+00  0.00000000E+00
  0.00000000E+00  0.00000000E+00  0.00000000E+00
  0.00000000E+00  0.00000000E+00  0.00000000E+00
  0.00000000E+00  0.00000000E+00  0.00000000E+00
