MA-Pb-I                                 
   1.0000000000000000     
     5.8857348584972646   -0.0000116429338373    0.0677019167604032
    -0.0000113721705701    5.8535748976198549   -0.0000048572736550
     0.0678468051824150   -0.0000044748208102    6.0066012361495211
   C    N    H    Pb   Br
     1     1     6     1     3
Direct
  0.3772308825431744  0.8537168346087345  0.6918005937129055 
  0.3034698223110148  0.1038759605397706  0.8529660314512678 
  0.2513996230932730  0.8288229169717273  0.8226836931860110 
  0.1756005698725223  0.0457528988246380  0.6497947370365399 
  0.8976972067277306  0.6609416786642642  0.4996017073086515 
  0.5545801966548314  0.2968065859431853  0.0211181030838021 
  0.2689586518057712  0.9290774987723138  0.8667553312710046 
  0.4140820959179255  0.1215378223892656  0.7206212036740994 
  0.5634996835838455  0.5560600509219376  0.4301796094568979 
  0.4343825501137815  0.4999407920523851  0.9818407606070920
  0.4217797225331665  0.9999416700962840  0.5296464633737443
  0.9610032600387797  0.4999434169907246  0.4296279775420402

  0.00000000E+00  0.00000000E+00  0.00000000E+00
  0.00000000E+00  0.00000000E+00  0.00000000E+00
  0.00000000E+00  0.00000000E+00  0.00000000E+00
  0.00000000E+00  0.00000000E+00  0.00000000E+00
  0.00000000E+00  0.00000000E+00  0.00000000E+00
  0.00000000E+00  0.00000000E+00  0.00000000E+00
  0.00000000E+00  0.00000000E+00  0.00000000E+00
  0.00000000E+00  0.00000000E+00  0.00000000E+00
  0.00000000E+00  0.00000000E+00  0.00000000E+00
  0.00000000E+00  0.00000000E+00  0.00000000E+00
  0.00000000E+00  0.00000000E+00  0.00000000E+00
  0.00000000E+00  0.00000000E+00  0.00000000E+00
