MA-Pb-I                                 
   1.00000000000000     
     6.2884187138843197    0.0009579558247489    0.0690993966769832
     0.0005978161223733    6.2287690412624563   -0.0003732067435118
     0.0697053521696059    0.0000445224912706    6.3737103126460282
   C    N    H    Pb   I 
     1     1     6     1     3
Direct
  0.4592010504344175  0.4256250653442248  0.5415061420654216
  0.4649930495001310  0.2418167794502513  0.6879280416078943
  0.6187599161834840  0.4961914107524502  0.5250650729183672
  0.3458924979844351  0.5465063554126900  0.6027137384710858
  0.4059179712834251  0.3696203643918334  0.3875682572504169
  0.5089203680867561  0.2909389911728851  0.8361143298150365
  0.5787848039670038  0.1253452274362714  0.6432587731087607
  0.3178266537155553  0.1652858483433573  0.7048278078177179
  0.9845800295287247  0.8597652703285821  0.1698368529970878
  0.9756445708922631  0.3597131863396724  0.1602260363229406
  0.9890033177182195  0.8854943018048471 -0.3347529287338079
  0.4864922287022164  0.8433519973601056  0.1804758260115610
 
  0.00000000E+00  0.00000000E+00  0.00000000E+00
  0.00000000E+00  0.00000000E+00  0.00000000E+00
  0.00000000E+00  0.00000000E+00  0.00000000E+00
  0.00000000E+00  0.00000000E+00  0.00000000E+00
  0.00000000E+00  0.00000000E+00  0.00000000E+00
  0.00000000E+00  0.00000000E+00  0.00000000E+00
  0.00000000E+00  0.00000000E+00  0.00000000E+00
  0.00000000E+00  0.00000000E+00  0.00000000E+00
  0.00000000E+00  0.00000000E+00  0.00000000E+00
  0.00000000E+00  0.00000000E+00  0.00000000E+00
  0.00000000E+00  0.00000000E+00  0.00000000E+00
  0.00000000E+00  0.00000000E+00  0.00000000E+00
