MA-Pb-I                                 
   1.00000000000000     
     5.8892445321787328   -0.0048008041779134    0.0656571269169357
    -0.0053334077729528    5.8544884580747532    0.0012821621476484
     0.0639774282558244    0.0006908469467942    6.0230320529523143
   C    N    H    Pb   Br
     1     1     6     1     3
Direct
  0.0237534243614018  0.8105319544480750  0.4696768301913167
  0.1522615987748195  0.4160498660194818  0.9112979646124956
  0.1147418461619796  0.4411695181651130  0.0813761166785083
  0.0161134942684001  0.8018710384186186  0.6575423793534203
  0.5812346582883477  0.0549496507466710  0.0547165531328226
  0.4210722567527508  0.4440696859579870  0.4710918643016634
  0.3111023769311972  0.3416256330077590  0.8828148259407531
  0.1635049950813906  0.5805279270016482  0.8363010013441937
 -0.0427376947931355  0.2374353363286126  0.4985501780221892
  0.7899049761906665  0.1795606871040937 -0.0086652896406607
  0.4339416349136449  0.1872626811002320  0.4743575685997666
  0.6968527048382082  0.7106896245689168  0.3921252483933370
 
  0.00000000E+00  0.00000000E+00  0.00000000E+00
  0.00000000E+00  0.00000000E+00  0.00000000E+00
  0.00000000E+00  0.00000000E+00  0.00000000E+00
  0.00000000E+00  0.00000000E+00  0.00000000E+00
  0.00000000E+00  0.00000000E+00  0.00000000E+00
  0.00000000E+00  0.00000000E+00  0.00000000E+00
  0.00000000E+00  0.00000000E+00  0.00000000E+00
  0.00000000E+00  0.00000000E+00  0.00000000E+00
  0.00000000E+00  0.00000000E+00  0.00000000E+00
  0.00000000E+00  0.00000000E+00  0.00000000E+00
  0.00000000E+00  0.00000000E+00  0.00000000E+00
  0.00000000E+00  0.00000000E+00  0.00000000E+00
