MA-Pb-I                                 
   1.0000000000000000     
     5.8857348584972646   -0.0000116429338373    0.0677019167604032
    -0.0000113721705701    5.8535748976198549   -0.0000048572736550
     0.0678468051824150   -0.0000044748208102    6.0066012361495211
   C    N    H    Pb   Br
     1     1     6     1     3
Direct
  0.8871990983250535  0.0568125908671887  0.9581195131070019 
  0.7704511973496586  0.3362164606573825  0.6562369874375150 
  0.7604875464471916  0.1732670477466361  0.0210968170455648 
  0.4298502280137200  0.1977416282590321  0.6413763590865166 
  0.1920375762406805  0.7082131301004914  0.0680524099892066 
  0.0808798352210609  0.0052447415647707  0.2104480969921181 
  0.8364628125184134  0.5021241711274107  0.6489729537898050 
  0.8984595936228278  0.2304799297825040  0.6062789410589163 
  0.4536236637143193  0.5439634873599806  0.4649709101936946 
  0.4343825501137815  0.4999407920523851  0.9818407606070920
  0.4217797225331665  0.9999416700962840  0.5296464633737443
  0.9610032600387797  0.4999434169907246  0.4296279775420402

  0.00000000E+00  0.00000000E+00  0.00000000E+00
  0.00000000E+00  0.00000000E+00  0.00000000E+00
  0.00000000E+00  0.00000000E+00  0.00000000E+00
  0.00000000E+00  0.00000000E+00  0.00000000E+00
  0.00000000E+00  0.00000000E+00  0.00000000E+00
  0.00000000E+00  0.00000000E+00  0.00000000E+00
  0.00000000E+00  0.00000000E+00  0.00000000E+00
  0.00000000E+00  0.00000000E+00  0.00000000E+00
  0.00000000E+00  0.00000000E+00  0.00000000E+00
  0.00000000E+00  0.00000000E+00  0.00000000E+00
  0.00000000E+00  0.00000000E+00  0.00000000E+00
  0.00000000E+00  0.00000000E+00  0.00000000E+00
