MA-Pb-I                                 
   1.00000000000000     
     5.8857348584972646   -0.0000116429338373    0.0677019167604032
    -0.0000113721705701    5.8535748976198549   -0.0000048572736550
     0.0678468051824150   -0.0000044748208102    6.0066012361495211
   C    N    H    Pb   Br
     1     1     6     1     3
Direct
  0.7676953009444334  0.7796203924488094 -0.0103618644842747
  0.7530941745522561  0.0773680907689155  0.6476255735602064
  0.7796413488431988  0.8667979158923442  0.1480618590064481
  0.4157228453957904  0.0625308649743583  0.0939156792486387
 -0.0894000304223271  0.6524592224543962 -0.0294010149599621
  0.3889944099199625  0.0423425342933108 -0.0314946972895046
  0.7480750125990695 -0.0847737691304465  0.8103067952148777
  0.8410654828451050  0.0329593165481837  0.5041279836494246
  0.4863082629168287  0.5665124753243298  0.5255319674400806
  0.4990252126165871  0.5729787507564730  0.0114010845475104
  0.4531542241260745  0.0673050446456623  0.5288676552247732
  0.0085066065210929  0.5737668490232325  0.4961048754047895
 
  0.00000000E+00  0.00000000E+00  0.00000000E+00
  0.00000000E+00  0.00000000E+00  0.00000000E+00
  0.00000000E+00  0.00000000E+00  0.00000000E+00
  0.00000000E+00  0.00000000E+00  0.00000000E+00
  0.00000000E+00  0.00000000E+00  0.00000000E+00
  0.00000000E+00  0.00000000E+00  0.00000000E+00
  0.00000000E+00  0.00000000E+00  0.00000000E+00
  0.00000000E+00  0.00000000E+00  0.00000000E+00
  0.00000000E+00  0.00000000E+00  0.00000000E+00
  0.00000000E+00  0.00000000E+00  0.00000000E+00
  0.00000000E+00  0.00000000E+00  0.00000000E+00
  0.00000000E+00  0.00000000E+00  0.00000000E+00
