MA-Pb-I                                 
   1.0000000000000000     
     5.8857348584972646   -0.0000116429338373    0.0677019167604032
    -0.0000113721705701    5.8535748976198549   -0.0000048572736550
     0.0678468051824150   -0.0000044748208102    6.0066012361495211
   C    N    H    Pb   Br
     1     1     6     1     3
Direct
  0.9519349969128028  0.5055273061497291  0.0188419178206686 
  0.6887925954046195  0.1648818716390219  0.6811242538410196 
  0.9518250670071412  0.5675753822315504  0.1912763195150917 
  0.4951717224901984  0.1928532808699611  0.1226272669973429 
  0.1678736826322970  0.7659968863174765  0.9161621103573061 
  0.0161000544221450  0.4361700753426258  0.0044529718960331 
  0.6797131956852507  0.0252290479365316  0.7922562530495585 
  0.6771388065601961  0.1004050413797779  0.5205966940852590 
  0.6061671970576857  0.4514029169934948  0.5062329074778585 
  0.4343825501137815  0.4999407920523851  0.9818407606070920
  0.4217797225331665  0.9999416700962840  0.5296464633737443
  0.9610032600387797  0.4999434169907246  0.4296279775420402

  0.00000000E+00  0.00000000E+00  0.00000000E+00
  0.00000000E+00  0.00000000E+00  0.00000000E+00
  0.00000000E+00  0.00000000E+00  0.00000000E+00
  0.00000000E+00  0.00000000E+00  0.00000000E+00
  0.00000000E+00  0.00000000E+00  0.00000000E+00
  0.00000000E+00  0.00000000E+00  0.00000000E+00
  0.00000000E+00  0.00000000E+00  0.00000000E+00
  0.00000000E+00  0.00000000E+00  0.00000000E+00
  0.00000000E+00  0.00000000E+00  0.00000000E+00
  0.00000000E+00  0.00000000E+00  0.00000000E+00
  0.00000000E+00  0.00000000E+00  0.00000000E+00
  0.00000000E+00  0.00000000E+00  0.00000000E+00
