MA-Pb-I                                 
   1.00000000000000     
     5.6267413476480952    0.0000416704727542    0.0620815770375229
    -0.0000317550626923    5.5940171136319288    0.0000254647194750
     0.0578866146782483   -0.0000342937909938    5.7648243532177101
   C    N    H    Pb   Cl
     1     1     6     1     3
Direct
  0.6904472000635187  0.5309388390586243  0.4821680913963928
  0.4916522277062571  0.7020465114156100  0.4513020805138133
  0.8174457664591638  0.5965476129661594  0.6115131255943401
  0.7860734607782152  0.5040213558279460  0.3142367751091047
  0.6179792999625792  0.3571715272347458  0.5439451599059862
  0.5180856613004240  0.8759955633508708  0.5034280470797736
  0.3259856320983223  0.6427884383789708  0.5047238621349182
  0.1241182740222515  0.1381721242389348  0.2800102220153020
  0.4660672648532750  0.7332752926981827 -0.0001501610966296
  0.1401487278243421 -0.8412292479864429  0.5033191114052117
 -0.0265101664920008  0.7390341722434156 -0.0048846013833781
  0.4646872586121021  0.2300240757450835 -0.0087033971698774
 
  0.00000000E+00  0.00000000E+00  0.00000000E+00
  0.00000000E+00  0.00000000E+00  0.00000000E+00
  0.00000000E+00  0.00000000E+00  0.00000000E+00
  0.00000000E+00  0.00000000E+00  0.00000000E+00
  0.00000000E+00  0.00000000E+00  0.00000000E+00
  0.00000000E+00  0.00000000E+00  0.00000000E+00
  0.00000000E+00  0.00000000E+00  0.00000000E+00
  0.00000000E+00  0.00000000E+00  0.00000000E+00
  0.00000000E+00  0.00000000E+00  0.00000000E+00
  0.00000000E+00  0.00000000E+00  0.00000000E+00
  0.00000000E+00  0.00000000E+00  0.00000000E+00
  0.00000000E+00  0.00000000E+00  0.00000000E+00
