MA-Pb-I                                 
   1.0000000000000000     
     5.6267413476480952    0.0000416704727542    0.0620815770375229
    -0.0000317550626923    5.5940171136319288    0.0000254647194750
     0.0578866146782483   -0.0000342937909938    5.7648243532177101
   C    N    H    Pb   Cl
     1     1     6     1     3
Direct
  0.6689291050683800  0.5412973323802225  0.5359194678012391 
  0.4164819654689333  0.5968347491172455  0.5111553254050333 
  0.7355035322147708  0.6456954069603482  0.6812338625659922 
  0.7631931233263833  0.5890200357186052  0.3705167604236262 
  0.6905726994052823  0.3502488865688120  0.5753285218527926 
  0.3881896215634404  0.7775264913975375  0.4728343066879604 
  0.3199984740607063  0.5533210948043331  0.6651558202440517 
  0.3406609334667689  0.5040290320974866  0.3760799126419299 
  0.8295551036960688  0.1507350780278792  0.5711464018598544 
  0.9135858188955126  0.0000223702692494  0.4744099460480626
  0.9004629834686284  0.5000248740275239  0.0232973215355017
  0.4490472465535831  0.0000309138028598  0.9238306684389244

  0.00000000E+00  0.00000000E+00  0.00000000E+00
  0.00000000E+00  0.00000000E+00  0.00000000E+00
  0.00000000E+00  0.00000000E+00  0.00000000E+00
  0.00000000E+00  0.00000000E+00  0.00000000E+00
  0.00000000E+00  0.00000000E+00  0.00000000E+00
  0.00000000E+00  0.00000000E+00  0.00000000E+00
  0.00000000E+00  0.00000000E+00  0.00000000E+00
  0.00000000E+00  0.00000000E+00  0.00000000E+00
  0.00000000E+00  0.00000000E+00  0.00000000E+00
  0.00000000E+00  0.00000000E+00  0.00000000E+00
  0.00000000E+00  0.00000000E+00  0.00000000E+00
  0.00000000E+00  0.00000000E+00  0.00000000E+00
