MA-Pb-I                                 
   1.00000000000000     
     5.8857348584972646   -0.0000116429338373    0.0677019167604032
    -0.0000113721705701    5.8535748976198549   -0.0000048572736550
     0.0678468051824150   -0.0000044748208102    6.0066012361495211
   C    N    H    Pb   Br
     1     1     6     1     3
Direct
 -0.0210089719442287  0.9003015690199474  0.9212706833322922
 -0.0035529724000024  0.0159355302295488  0.1400620253705899
 -0.0107011306410192  0.7135028979244078  0.9448057266835751
  0.1209675095678371 -0.0432641796738605  0.8114632912619323
  0.8148260840588735  0.9445019053820176  0.8473853630898097
  0.1475474445847723 -0.0262497257165886  0.2211730504335507
  0.8588770793833033  0.9718722528701300  0.2466749422181395
 -0.0067188150700096  0.1937588402681334  0.1283348652075194
  0.4858337091970670  0.4909865041036727  0.4671891224199806
  0.4867213408731220  0.4932256415873243  0.9711783876926249
  0.4864164840945596  0.9880890251440364  0.4635883021458948
  0.9854077261569442  0.4929314185836478  0.4628619933724923
 
  0.00000000E+00  0.00000000E+00  0.00000000E+00
  0.00000000E+00  0.00000000E+00  0.00000000E+00
  0.00000000E+00  0.00000000E+00  0.00000000E+00
  0.00000000E+00  0.00000000E+00  0.00000000E+00
  0.00000000E+00  0.00000000E+00  0.00000000E+00
  0.00000000E+00  0.00000000E+00  0.00000000E+00
  0.00000000E+00  0.00000000E+00  0.00000000E+00
  0.00000000E+00  0.00000000E+00  0.00000000E+00
  0.00000000E+00  0.00000000E+00  0.00000000E+00
  0.00000000E+00  0.00000000E+00  0.00000000E+00
  0.00000000E+00  0.00000000E+00  0.00000000E+00
  0.00000000E+00  0.00000000E+00  0.00000000E+00
