MA-Pb-I                                 
   1.00000000000000     
     5.8892445321787328   -0.0048008041779134    0.0656571269169357
    -0.0053334077729528    5.8544884580747532    0.0012821621476484
     0.0639774282558244    0.0006908469467942    6.0230320529523143
   C    N    H    Pb   Br
     1     1     6     1     3
Direct
  0.3799282518127387  0.5207031087381349  0.2433829804174146 
  0.9056497420001268  0.8330160176626893  0.1994144867239604 
  0.4097458326015709  0.6576977946107195  0.1260372408276984 
  0.9812566647541938  0.6886246043279499  0.1356524614867091 
  0.5076458937531432  0.0693087243805219  0.4658318759480703 
  0.5635475950565357  0.4370940057041026  0.8092076860697508 
  0.0764707292052837  0.8287542128470288  0.1477810842229860 
  0.8875811741566102  0.7084502866527618  0.3180200429573073 
  0.4452936010152448  0.3929596114265705  0.4425994060012062 
  0.4352272726238539  0.4972012503325617  0.9832769846011953
  0.4159970891092727  0.9985715009710078  0.5336351900357424
  0.9598885390497535  0.4995712578389358  0.4264000332832606
 
  0.00000000E+00  0.00000000E+00  0.00000000E+00
  0.00000000E+00  0.00000000E+00  0.00000000E+00
  0.00000000E+00  0.00000000E+00  0.00000000E+00
  0.00000000E+00  0.00000000E+00  0.00000000E+00
  0.00000000E+00  0.00000000E+00  0.00000000E+00
  0.00000000E+00  0.00000000E+00  0.00000000E+00
  0.00000000E+00  0.00000000E+00  0.00000000E+00
  0.00000000E+00  0.00000000E+00  0.00000000E+00
  0.00000000E+00  0.00000000E+00  0.00000000E+00
  0.00000000E+00  0.00000000E+00  0.00000000E+00
  0.00000000E+00  0.00000000E+00  0.00000000E+00
  0.00000000E+00  0.00000000E+00  0.00000000E+00
