MA-Pb-I                                 
   1.00000000000000     
     5.6267413476480952    0.0000416704727542    0.0620815770375229
    -0.0000317550626923    5.5940171136319288    0.0000254647194750
     0.0578866146782483   -0.0000342937909938    5.7648243532177101
   C    N    H    Pb   Cl
     1     1     6     1     3
Direct
  0.4909220659970425  0.5020711224540197  0.4471011185639829
  0.6010035385676955  0.5085066062720607  0.6774654748431739
  0.5198049074107375  0.6757410297228058  0.3605691312804505
  0.2981633587674460  0.4676678905365375  0.4695969818361518
  0.5725143907912669  0.3573855557739092  0.3448010542343630
  0.5350672665610673  0.6486057102647187  0.7822561892282306
  0.7850642900895840  0.5328102137220508  0.6720098812932331
  0.5730961480227404  0.3469661337278789  0.7689548895759676
  0.0089748347623963  0.0258830737973404  0.0083847373399152
  0.9910510172975803  0.0261068924065775  0.5188252877274450
  0.0212017128452591  0.5244378068365075  0.0075554791841005
  0.5129164123033315  0.0189455217045800  0.0042906120287596
 
  0.00000000E+00  0.00000000E+00  0.00000000E+00
  0.00000000E+00  0.00000000E+00  0.00000000E+00
  0.00000000E+00  0.00000000E+00  0.00000000E+00
  0.00000000E+00  0.00000000E+00  0.00000000E+00
  0.00000000E+00  0.00000000E+00  0.00000000E+00
  0.00000000E+00  0.00000000E+00  0.00000000E+00
  0.00000000E+00  0.00000000E+00  0.00000000E+00
  0.00000000E+00  0.00000000E+00  0.00000000E+00
  0.00000000E+00  0.00000000E+00  0.00000000E+00
  0.00000000E+00  0.00000000E+00  0.00000000E+00
  0.00000000E+00  0.00000000E+00  0.00000000E+00
  0.00000000E+00  0.00000000E+00  0.00000000E+00
