MA-Pb-I                                 
   1.0000000000000000     
     6.2884187138843197    0.0009579558247489    0.0690993966769832
     0.0005978161223733    6.2287690412624563   -0.0003732067435118
     0.0697053521696059    0.0000445224912706    6.3737103126460282
   C    N    H    Pb   I 
     1     1     6     1     3
Direct
  0.4705554310788382  0.4575847559731859  0.4843454931471823 
  0.5479879097143349  0.6424327766039619  0.3652390628196499 
  0.4761540413134703  0.3216631099899702  0.3777734677131189 
  0.3047903097284501  0.4874585086485860  0.5365991607225558 
  0.5752010030655725  0.4303236456208825  0.6236056807014927 
  0.4526230164299099  0.6749927345598228  0.2310243735616440 
  0.7060161498089726  0.6214337088895028  0.3126133308018601 
  0.5471979778381247  0.7779837291234581  0.4566102430435683 
  0.2033334183050802  0.2725700582366704  0.1873203218217872 
  0.9094873486598019  0.9999820990246278  0.4751454839169895
  0.8992708791277906  0.4999580210910821  0.0236644354684188
  0.4323428768805755  0.9999948727175436  0.9224794036872126

  0.00000000E+00  0.00000000E+00  0.00000000E+00
  0.00000000E+00  0.00000000E+00  0.00000000E+00
  0.00000000E+00  0.00000000E+00  0.00000000E+00
  0.00000000E+00  0.00000000E+00  0.00000000E+00
  0.00000000E+00  0.00000000E+00  0.00000000E+00
  0.00000000E+00  0.00000000E+00  0.00000000E+00
  0.00000000E+00  0.00000000E+00  0.00000000E+00
  0.00000000E+00  0.00000000E+00  0.00000000E+00
  0.00000000E+00  0.00000000E+00  0.00000000E+00
  0.00000000E+00  0.00000000E+00  0.00000000E+00
  0.00000000E+00  0.00000000E+00  0.00000000E+00
  0.00000000E+00  0.00000000E+00  0.00000000E+00
