MA-Pb-I                                 
   1.00000000000000     
     5.8892445321787328   -0.0048008041779134    0.0656571269169357
    -0.0053334077729528    5.8544884580747532    0.0012821621476484
     0.0639774282558244    0.0006908469467942    6.0230320529523143
   C    N    H    Pb   Br
     1     1     6     1     3
Direct
  0.1996584386125566  0.9038451975355180  0.6024573954205596 
  0.0514247684515207  0.1084246043942350  0.8306160655898549 
  0.0637875952559612  0.9835640588266205  0.5096636900235789 
  0.1935474273938721  0.5358214183728613  0.9175051908561449 
  0.3596376384804811  0.1430686876796574  0.2037058252074738 
  0.8603409727015858  0.3992122638149901  0.3807827510629428 
  0.0301627793345831  0.0236117343921589  0.6749925268668809 
  0.1879444695589632  0.0352971631865020  0.9075908732045485 
  0.4619657782675453  0.5653880074580153  0.5467650943862574 
  0.4352272726238539  0.4972012503325617  0.9832769846011953
  0.4159970891092727  0.9985715009710078  0.5336351900357424
  0.9598885390497535  0.4995712578389358  0.4264000332832606
 
  0.00000000E+00  0.00000000E+00  0.00000000E+00
  0.00000000E+00  0.00000000E+00  0.00000000E+00
  0.00000000E+00  0.00000000E+00  0.00000000E+00
  0.00000000E+00  0.00000000E+00  0.00000000E+00
  0.00000000E+00  0.00000000E+00  0.00000000E+00
  0.00000000E+00  0.00000000E+00  0.00000000E+00
  0.00000000E+00  0.00000000E+00  0.00000000E+00
  0.00000000E+00  0.00000000E+00  0.00000000E+00
  0.00000000E+00  0.00000000E+00  0.00000000E+00
  0.00000000E+00  0.00000000E+00  0.00000000E+00
  0.00000000E+00  0.00000000E+00  0.00000000E+00
  0.00000000E+00  0.00000000E+00  0.00000000E+00
