MA-Pb-I                                 
   1.0000000000000000     
     5.6267413476480952    0.0000416704727542    0.0620815770375229
    -0.0000317550626923    5.5940171136319288    0.0000254647194750
     0.0578866146782483   -0.0000342937909938    5.7648243532177101
   C    N    H    Pb   Cl
     1     1     6     1     3
Direct
  0.5884391221616521  0.6612256851736636  0.4298857583781170 
  0.5029177713766766  0.4348121906569138  0.5239615456935082 
  0.7176075042083883  0.6209836334992610  0.2951879781134921 
  0.6721318965668982  0.7648215476655789  0.5740545273498381 
  0.4384878519723699  0.7605129458199805  0.3512875153571350 
  0.6406139567685879  0.3348178377821771  0.6011583905069290 
  0.4212226310121792  0.3307702626413311  0.3919773197713435 
  0.3791772272352779  0.4587351591898964  0.6532792415077626 
  0.8185126286582640  0.1543221664020462  0.5225709397516740 
  0.9135858188955126  0.0000223702692494  0.4744099460480626
  0.9004629834686284  0.5000248740275239  0.0232973215355017
  0.4490472465535831  0.0000309138028598  0.9238306684389244

  0.00000000E+00  0.00000000E+00  0.00000000E+00
  0.00000000E+00  0.00000000E+00  0.00000000E+00
  0.00000000E+00  0.00000000E+00  0.00000000E+00
  0.00000000E+00  0.00000000E+00  0.00000000E+00
  0.00000000E+00  0.00000000E+00  0.00000000E+00
  0.00000000E+00  0.00000000E+00  0.00000000E+00
  0.00000000E+00  0.00000000E+00  0.00000000E+00
  0.00000000E+00  0.00000000E+00  0.00000000E+00
  0.00000000E+00  0.00000000E+00  0.00000000E+00
  0.00000000E+00  0.00000000E+00  0.00000000E+00
  0.00000000E+00  0.00000000E+00  0.00000000E+00
  0.00000000E+00  0.00000000E+00  0.00000000E+00
