MA-Pb-I                                 
   1.00000000000000     
     5.6267413476480952    0.0000416704727542    0.0620815770375229
    -0.0000317550626923    5.5940171136319288    0.0000254647194750
     0.0578866146782483   -0.0000342937909938    5.7648243532177101
   C    N    H    Pb   Cl
     1     1     6     1     3
Direct
  0.3875234658441478  0.5545260631431917  0.5242821419944372
  0.6265397823936164  0.5735858557554767  0.4130068524293258
  0.2751130788444670  0.7022466219100054  0.4621016745524597
  0.4031445914636195  0.5676634896543253  0.7141848823466003
  0.3083509035831840  0.3803498435992362  0.4799633395669348
  0.7162053968980956  0.7318374454708522  0.4580474724270385
  0.6249696312022758  0.5736074280051778  0.2318099297207001
  0.7356576675201774  0.4273752098410875  0.4565809359391883
 -0.0403740664286051  0.0740374272963437  0.9547024617290720
  0.9546386059874811  0.0728801683825216  0.4564142275579913
  0.9567221021632447  0.5741043413062722 -0.0479832216019645
  0.4612248478201315  0.0745772073339048  0.9553871389878916
 
  0.00000000E+00  0.00000000E+00  0.00000000E+00
  0.00000000E+00  0.00000000E+00  0.00000000E+00
  0.00000000E+00  0.00000000E+00  0.00000000E+00
  0.00000000E+00  0.00000000E+00  0.00000000E+00
  0.00000000E+00  0.00000000E+00  0.00000000E+00
  0.00000000E+00  0.00000000E+00  0.00000000E+00
  0.00000000E+00  0.00000000E+00  0.00000000E+00
  0.00000000E+00  0.00000000E+00  0.00000000E+00
  0.00000000E+00  0.00000000E+00  0.00000000E+00
  0.00000000E+00  0.00000000E+00  0.00000000E+00
  0.00000000E+00  0.00000000E+00  0.00000000E+00
  0.00000000E+00  0.00000000E+00  0.00000000E+00
