MA-Pb-I                                 
   1.0000000000000000     
     5.6267413476480952    0.0000416704727542    0.0620815770375229
    -0.0000317550626923    5.5940171136319288    0.0000254647194750
     0.0578866146782483   -0.0000342937909938    5.7648243532177101
   C    N    H    Pb   Cl
     1     1     6     1     3
Direct
  0.3870615917573857  0.5600129396506224  0.4968762959965119 
  0.6315412759125923  0.5973901336919832  0.4177570499223189 
  0.2834111199921073  0.7057538883045638  0.4300665568858213 
  0.3811081215890150  0.5580312280668362  0.6930441990083597 
  0.3195419155890861  0.3908271970866755  0.4238125894984979 
  0.7028109278966987  0.7568387249240338  0.4842043703171034 
  0.6449994992269382  0.5998357960202413  0.2313930255033207 
  0.7409996848300096  0.4655122105353744  0.4746267891490343 
  0.0551458215802749  0.1725108253184325  0.9851790233462091 
  0.9135858188955126  0.0000223702692494  0.4744099460480626
  0.9004629834686284  0.5000248740275239  0.0232973215355017
  0.4490472465535831  0.0000309138028598  0.9238306684389244

  0.00000000E+00  0.00000000E+00  0.00000000E+00
  0.00000000E+00  0.00000000E+00  0.00000000E+00
  0.00000000E+00  0.00000000E+00  0.00000000E+00
  0.00000000E+00  0.00000000E+00  0.00000000E+00
  0.00000000E+00  0.00000000E+00  0.00000000E+00
  0.00000000E+00  0.00000000E+00  0.00000000E+00
  0.00000000E+00  0.00000000E+00  0.00000000E+00
  0.00000000E+00  0.00000000E+00  0.00000000E+00
  0.00000000E+00  0.00000000E+00  0.00000000E+00
  0.00000000E+00  0.00000000E+00  0.00000000E+00
  0.00000000E+00  0.00000000E+00  0.00000000E+00
  0.00000000E+00  0.00000000E+00  0.00000000E+00
