MA-Pb-I                                 
   1.00000000000000     
     5.6267413476480952    0.0000416704727542    0.0620815770375229
    -0.0000317550626923    5.5940171136319288    0.0000254647194750
     0.0578866146782483   -0.0000342937909938    5.7648243532177101
   C    N    H    Pb   Cl
     1     1     6     1     3
Direct
  0.4535298911275542  0.4300868825989988  0.4545312902432617
  0.6969126101983228  0.5267167273613683  0.4131896907628314
  0.4590135476480351  0.2333924087011601  0.4409772559691028
  0.3352947919870972  0.5020783698628056  0.3212875220699839
  0.3901698793235180  0.4826648545080512  0.6297378980759316
  0.7644529627286386  0.4920802580905136  0.2441689224414944
  0.8177927284835755  0.4495013949532475  0.5275198573120223
  0.7131763234283907  0.7124386256225620  0.4353768411451666
  0.0290743901386857  0.0007668768624628  0.9440591549589424
  0.0227516078528864  0.0028151726485560  0.4460218122933424
  0.0254354541650671  0.4978873238249888 -0.0574858141341089
  0.5307442623056812  0.0041199319342497  0.9443913965189192
 
  0.00000000E+00  0.00000000E+00  0.00000000E+00
  0.00000000E+00  0.00000000E+00  0.00000000E+00
  0.00000000E+00  0.00000000E+00  0.00000000E+00
  0.00000000E+00  0.00000000E+00  0.00000000E+00
  0.00000000E+00  0.00000000E+00  0.00000000E+00
  0.00000000E+00  0.00000000E+00  0.00000000E+00
  0.00000000E+00  0.00000000E+00  0.00000000E+00
  0.00000000E+00  0.00000000E+00  0.00000000E+00
  0.00000000E+00  0.00000000E+00  0.00000000E+00
  0.00000000E+00  0.00000000E+00  0.00000000E+00
  0.00000000E+00  0.00000000E+00  0.00000000E+00
  0.00000000E+00  0.00000000E+00  0.00000000E+00
