MA-Pb-I                                 
   1.0000000000000000     
     5.6267413476480952    0.0000416704727542    0.0620815770375229
    -0.0000317550626923    5.5940171136319288    0.0000254647194750
     0.0578866146782483   -0.0000342937909938    5.7648243532177101
   C    N    H    Pb   Cl
     1     1     6     1     3
Direct
  0.4761741694385130  0.4681840950791353  0.4217781882147805 
  0.7257946089150412  0.5395949385546175  0.4176124556202764 
  0.4697294672397373  0.2833901824566755  0.3742696487402198 
  0.3752968090039442  0.5744250019287354  0.2911725029501586 
  0.4036649672053414  0.4934197071383651  0.6024065548671953 
  0.8015326636532666  0.5187909208433975  0.2480559669829813 
  0.8281716541999536  0.4427239216477550  0.5403055740858569 
  0.7461508775874498  0.7136766055854107  0.4610669452394668 
  0.1487371832264792  0.8002652956352256  0.9655700549334663 
  0.9135858188955126  0.0000223702692494  0.4744099460480626
  0.9004629834686284  0.5000248740275239  0.0232973215355017
  0.4490472465535831  0.0000309138028598  0.9238306684389244

  0.00000000E+00  0.00000000E+00  0.00000000E+00
  0.00000000E+00  0.00000000E+00  0.00000000E+00
  0.00000000E+00  0.00000000E+00  0.00000000E+00
  0.00000000E+00  0.00000000E+00  0.00000000E+00
  0.00000000E+00  0.00000000E+00  0.00000000E+00
  0.00000000E+00  0.00000000E+00  0.00000000E+00
  0.00000000E+00  0.00000000E+00  0.00000000E+00
  0.00000000E+00  0.00000000E+00  0.00000000E+00
  0.00000000E+00  0.00000000E+00  0.00000000E+00
  0.00000000E+00  0.00000000E+00  0.00000000E+00
  0.00000000E+00  0.00000000E+00  0.00000000E+00
  0.00000000E+00  0.00000000E+00  0.00000000E+00
