MA-Pb-I                                 
   1.0000000000000000     
     5.8857348584972646   -0.0000116429338373    0.0677019167604032
    -0.0000113721705701    5.8535748976198549   -0.0000048572736550
     0.0678468051824150   -0.0000044748208102    6.0066012361495211
   C    N    H    Pb   Br
     1     1     6     1     3
Direct
  0.7920886717029914  0.6745669717188087  0.8089448686412173 
  0.5426070394458263  0.7055396397188179  0.4532044445068417 
  0.8798921967936327  0.5770011088845216  0.9368317018525039 
  0.7746882731916682  0.5650264738148465  0.0734255480540644 
  0.0499809337585480  0.1661674684454802  0.5800991802807969 
  0.2983603585356031  0.2228910053615280  0.0977070729274636 
  0.5812984620913743  0.8129559402403117  0.5906830978002504 
  0.4702218643652047  0.8058443537654916  0.3317074460072416 
  0.4327320527807438  0.4348547805757986  0.5031351047157043 
  0.4343825501137815  0.4999407920523851  0.9818407606070920
  0.4217797225331665  0.9999416700962840  0.5296464633737443
  0.9610032600387797  0.4999434169907246  0.4296279775420402

  0.00000000E+00  0.00000000E+00  0.00000000E+00
  0.00000000E+00  0.00000000E+00  0.00000000E+00
  0.00000000E+00  0.00000000E+00  0.00000000E+00
  0.00000000E+00  0.00000000E+00  0.00000000E+00
  0.00000000E+00  0.00000000E+00  0.00000000E+00
  0.00000000E+00  0.00000000E+00  0.00000000E+00
  0.00000000E+00  0.00000000E+00  0.00000000E+00
  0.00000000E+00  0.00000000E+00  0.00000000E+00
  0.00000000E+00  0.00000000E+00  0.00000000E+00
  0.00000000E+00  0.00000000E+00  0.00000000E+00
  0.00000000E+00  0.00000000E+00  0.00000000E+00
  0.00000000E+00  0.00000000E+00  0.00000000E+00
