MA-Pb-I                                 
   1.00000000000000     
     5.6267413476480952    0.0000416704727542    0.0620815770375229
    -0.0000317550626923    5.5940171136319288    0.0000254647194750
     0.0578866146782483   -0.0000342937909938    5.7648243532177101
   C    N    H    Pb   Cl
     1     1     6     1     3
Direct
  0.5393730654915551  0.5592531902533947  0.4596704144056100
  0.7670763519516440  0.6843401113281187  0.5087446708335366
  0.5192963205352444  0.5476110299499398  0.2708003147407486
  0.3925384237781999  0.6642688068661083  0.5402384609714138
  0.5435947032090682  0.3786317293983246  0.5358013638417580
  0.8463280335377352  0.7487965659334487  0.3554353256031739
  0.8861956838975155  0.5607263486947133  0.5795169644289442
  0.7472640217530696  0.8239784371973721  0.6224298464024028
  0.0319301188787288  0.2123559699665538 -0.0126934499314654
  0.0336829854666571  0.2029527605921730  0.4841600314845296
  0.5272636400809056  0.2034487526495492 -0.0235180523646490
  0.0399110691442674 -0.2767083563455254 -0.0011958469186815
 
  0.00000000E+00  0.00000000E+00  0.00000000E+00
  0.00000000E+00  0.00000000E+00  0.00000000E+00
  0.00000000E+00  0.00000000E+00  0.00000000E+00
  0.00000000E+00  0.00000000E+00  0.00000000E+00
  0.00000000E+00  0.00000000E+00  0.00000000E+00
  0.00000000E+00  0.00000000E+00  0.00000000E+00
  0.00000000E+00  0.00000000E+00  0.00000000E+00
  0.00000000E+00  0.00000000E+00  0.00000000E+00
  0.00000000E+00  0.00000000E+00  0.00000000E+00
  0.00000000E+00  0.00000000E+00  0.00000000E+00
  0.00000000E+00  0.00000000E+00  0.00000000E+00
  0.00000000E+00  0.00000000E+00  0.00000000E+00
