MA-Pb-I                                 
   1.0000000000000000     
     5.6267413476480952    0.0000416704727542    0.0620815770375229
    -0.0000317550626923    5.5940171136319288    0.0000254647194750
     0.0578866146782483   -0.0000342937909938    5.7648243532177101
   C    N    H    Pb   Cl
     1     1     6     1     3
Direct
  0.4308183439471711  0.4550220074099431  0.5461206397650361 
  0.6374914946072916  0.6013900057141058  0.4887634818243257 
  0.3795078154792174  0.3648699967557798  0.3858482769100978 
  0.2842354349968849  0.5698338672484905  0.6081924111591132 
  0.4793503273949622  0.3240321174549037  0.6839876868655095 
  0.5984310419534998  0.7292094506342989  0.3581689434000753 
  0.7816451472746229  0.4983996170019934  0.4293382439851549 
  0.6966291966460978  0.6927616404262025  0.6328504475990138 
  0.3232495665071220  0.5740584857388125  0.7645819759665048 
  0.9135858188955126  0.0000223702692494  0.4744099460480626
  0.9004629834686284  0.5000248740275239  0.0232973215355017
  0.4490472465535831  0.0000309138028598  0.9238306684389244

  0.00000000E+00  0.00000000E+00  0.00000000E+00
  0.00000000E+00  0.00000000E+00  0.00000000E+00
  0.00000000E+00  0.00000000E+00  0.00000000E+00
  0.00000000E+00  0.00000000E+00  0.00000000E+00
  0.00000000E+00  0.00000000E+00  0.00000000E+00
  0.00000000E+00  0.00000000E+00  0.00000000E+00
  0.00000000E+00  0.00000000E+00  0.00000000E+00
  0.00000000E+00  0.00000000E+00  0.00000000E+00
  0.00000000E+00  0.00000000E+00  0.00000000E+00
  0.00000000E+00  0.00000000E+00  0.00000000E+00
  0.00000000E+00  0.00000000E+00  0.00000000E+00
  0.00000000E+00  0.00000000E+00  0.00000000E+00
