MA-Pb-I                                 
   1.0000000000000000     
     6.2884187138843197    0.0009579558247489    0.0690993966769832
     0.0005978161223733    6.2287690412624563   -0.0003732067435118
     0.0697053521696059    0.0000445224912706    6.3737103126460282
   C    N    H    Pb   I 
     1     1     6     1     3
Direct
  0.5262151112450326  0.6059879833824802  0.6140948316004748 
  0.5960805079318614  0.4396702509784184  0.4664189721721894 
  0.5138295960806551  0.5339033631396227  0.7706644372939829 
  0.3691163633284084  0.6672507310745274  0.5624438734433699 
  0.6455196693145826  0.7357969792175134  0.6159143743624402 
  0.4867890723631434  0.3125197922639827  0.4589130074841820 
  0.7458038033533909  0.3768128953370742  0.5090246153733916 
  0.6114173047140850  0.4966315590057205  0.3139605537457112 
  0.2574917269289447  0.1581441604610037  0.8717631992352449 
  0.9094873486598019  0.9999820990246278  0.4751454839169895
  0.8992708791277906  0.4999580210910821  0.0236644354684188
  0.4323428768805755  0.9999948727175436  0.9224794036872126

  0.00000000E+00  0.00000000E+00  0.00000000E+00
  0.00000000E+00  0.00000000E+00  0.00000000E+00
  0.00000000E+00  0.00000000E+00  0.00000000E+00
  0.00000000E+00  0.00000000E+00  0.00000000E+00
  0.00000000E+00  0.00000000E+00  0.00000000E+00
  0.00000000E+00  0.00000000E+00  0.00000000E+00
  0.00000000E+00  0.00000000E+00  0.00000000E+00
  0.00000000E+00  0.00000000E+00  0.00000000E+00
  0.00000000E+00  0.00000000E+00  0.00000000E+00
  0.00000000E+00  0.00000000E+00  0.00000000E+00
  0.00000000E+00  0.00000000E+00  0.00000000E+00
  0.00000000E+00  0.00000000E+00  0.00000000E+00
