MA-Pb-I                                 
   1.0000000000000000     
     5.6267413476480952    0.0000416704727542    0.0620815770375229
    -0.0000317550626923    5.5940171136319288    0.0000254647194750
     0.0578866146782483   -0.0000342937909938    5.7648243532177101
   C    N    H    Pb   Cl
     1     1     6     1     3
Direct
  0.5265417152954656  0.5493865360834597  0.5000425156256778 
  0.2933546959459454  0.4456058210302082  0.4522868574446182 
  0.4986958120875521  0.7336734525001417  0.5413985764139159 
  0.6396519843766252  0.5329472903188189  0.3404899055342407 
  0.6089232061823919  0.4581622935672486  0.6530538057339730 
  0.2089804178154283  0.5273868518534240  0.3069895514994813 
  0.1801243249669382  0.4571657891456222  0.6004891005510390 
  0.3054852785194105  0.2701184260398163  0.4114932267596437 
  0.9431128763517140  0.8965532363586369  0.8029418359399780 
  0.9135858188955126  0.0000223702692494  0.4744099460480626
  0.9004629834686284  0.5000248740275239  0.0232973215355017
  0.4490472465535831  0.0000309138028598  0.9238306684389244

  0.00000000E+00  0.00000000E+00  0.00000000E+00
  0.00000000E+00  0.00000000E+00  0.00000000E+00
  0.00000000E+00  0.00000000E+00  0.00000000E+00
  0.00000000E+00  0.00000000E+00  0.00000000E+00
  0.00000000E+00  0.00000000E+00  0.00000000E+00
  0.00000000E+00  0.00000000E+00  0.00000000E+00
  0.00000000E+00  0.00000000E+00  0.00000000E+00
  0.00000000E+00  0.00000000E+00  0.00000000E+00
  0.00000000E+00  0.00000000E+00  0.00000000E+00
  0.00000000E+00  0.00000000E+00  0.00000000E+00
  0.00000000E+00  0.00000000E+00  0.00000000E+00
  0.00000000E+00  0.00000000E+00  0.00000000E+00
