MA-Pb-I                                 
   1.00000000000000     
     6.2884187138843197    0.0009579558247489    0.0690993966769832
     0.0005978161223733    6.2287690412624563   -0.0003732067435118
     0.0697053521696059    0.0000445224912706    6.3737103126460282
   C    N    H    Pb   I 
     1     1     6     1     3
Direct
  0.3612651838524000  0.5127678042617162  0.4669661595731529
  0.4110148730187931  0.7390323761393790  0.4182401750044876
  0.2221345282980000  0.5112947139324509  0.5725443020693376
  0.5021939906755516  0.4262909963967986  0.5311696917371097
  0.3211532001702273  0.4217676433871794  0.3228105786556458
  0.4050430112022224  0.8347525113538120  0.5589251318836679
  0.3027479525658739  0.8059546352316369  0.3180181602362909
  0.5584896841481884  0.7798620787398762  0.3543846248026152
  0.5203431762084756  0.4782635420788139  0.9575655534994212
  0.7885529146530438  0.1067569818478782  0.2533548412806037
  0.0174169706018349  0.5414390098819706 -0.0352931646183526
  0.4113660205214053  0.0155287371669329  0.8861605576120722
 
  0.00000000E+00  0.00000000E+00  0.00000000E+00
  0.00000000E+00  0.00000000E+00  0.00000000E+00
  0.00000000E+00  0.00000000E+00  0.00000000E+00
  0.00000000E+00  0.00000000E+00  0.00000000E+00
  0.00000000E+00  0.00000000E+00  0.00000000E+00
  0.00000000E+00  0.00000000E+00  0.00000000E+00
  0.00000000E+00  0.00000000E+00  0.00000000E+00
  0.00000000E+00  0.00000000E+00  0.00000000E+00
  0.00000000E+00  0.00000000E+00  0.00000000E+00
  0.00000000E+00  0.00000000E+00  0.00000000E+00
  0.00000000E+00  0.00000000E+00  0.00000000E+00
  0.00000000E+00  0.00000000E+00  0.00000000E+00
