MA-Pb-I                                 
   1.0000000000000000     
     6.2884187138843197    0.0009579558247489    0.0690993966769832
     0.0005978161223733    6.2287690412624563   -0.0003732067435118
     0.0697053521696059    0.0000445224912706    6.3737103126460282
   C    N    H    Pb   I 
     1     1     6     1     3
Direct
  0.4155151562743750  0.4658696836108903  0.5114182998388275 
  0.4788518379757825  0.6588491470163754  0.3969704397500282 
  0.2502773658769998  0.4855689815069522  0.5580235052933674 
  0.5173940284376352  0.4469110106081760  0.6541145732835666 
  0.4326084215695731  0.3267502852332430  0.4044562645724661 
  0.4657228930905784  0.7958686286402561  0.4929990240756578 
  0.3862868290884756  0.6832102272465823  0.2590515864978229 
  0.6345287518299096  0.6516143946783473  0.3476172823202789 
  0.9994351171045172  0.1591336790443676  0.5589063130314063 
  0.9094873486598019  0.9999820990246278  0.4751454839169895
  0.8992708791277906  0.4999580210910821  0.0236644354684188
  0.4323428768805755  0.9999948727175436  0.9224794036872126

  0.00000000E+00  0.00000000E+00  0.00000000E+00
  0.00000000E+00  0.00000000E+00  0.00000000E+00
  0.00000000E+00  0.00000000E+00  0.00000000E+00
  0.00000000E+00  0.00000000E+00  0.00000000E+00
  0.00000000E+00  0.00000000E+00  0.00000000E+00
  0.00000000E+00  0.00000000E+00  0.00000000E+00
  0.00000000E+00  0.00000000E+00  0.00000000E+00
  0.00000000E+00  0.00000000E+00  0.00000000E+00
  0.00000000E+00  0.00000000E+00  0.00000000E+00
  0.00000000E+00  0.00000000E+00  0.00000000E+00
  0.00000000E+00  0.00000000E+00  0.00000000E+00
  0.00000000E+00  0.00000000E+00  0.00000000E+00
