MA-Pb-I                                 
   1.00000000000000     
     6.2884187138843197    0.0009579558247489    0.0690993966769832
     0.0005978161223733    6.2287690412624563   -0.0003732067435118
     0.0697053521696059    0.0000445224912706    6.3737103126460282
   C    N    H    Pb   I 
     1     1     6     1     3
Direct
  0.4384129074060130  0.4991017874611567  0.6114837966856397
  0.6056736551949361  0.5512826734275372  0.4511675216819876
  0.5147129455087228  0.4703348121836877  0.7628215971623097
  0.3524656483070904  0.3537951395211484  0.5633762992088343
  0.3286031616582766  0.6361485231686363  0.6245923511950412
  0.7127809414836039  0.4244132650203820  0.4252232969480515
  0.6969370990798374  0.6879891134768579  0.4888089591090889
  0.5422378410655856  0.5865480843097300  0.3061011428162052
  0.9601502050581523  0.0148320598378920  0.0006274633174788
  0.9459771790968202  0.0191372333009852  0.5007380991540554
  0.9671395894016647  0.5141287172845866 -0.0002869265422983
  0.4630615633961402  0.0080312282673264  0.0045931714748442
 
  0.00000000E+00  0.00000000E+00  0.00000000E+00
  0.00000000E+00  0.00000000E+00  0.00000000E+00
  0.00000000E+00  0.00000000E+00  0.00000000E+00
  0.00000000E+00  0.00000000E+00  0.00000000E+00
  0.00000000E+00  0.00000000E+00  0.00000000E+00
  0.00000000E+00  0.00000000E+00  0.00000000E+00
  0.00000000E+00  0.00000000E+00  0.00000000E+00
  0.00000000E+00  0.00000000E+00  0.00000000E+00
  0.00000000E+00  0.00000000E+00  0.00000000E+00
  0.00000000E+00  0.00000000E+00  0.00000000E+00
  0.00000000E+00  0.00000000E+00  0.00000000E+00
  0.00000000E+00  0.00000000E+00  0.00000000E+00
