MA-Pb-I                                 
   1.00000000000000     
     5.6267413476480952    0.0000416704727542    0.0620815770375229
    -0.0000317550626923    5.5940171136319288    0.0000254647194750
     0.0578866146782483   -0.0000342937909938    5.7648243532177101
   C    N    H    Pb   Cl
     1     1     6     1     3
Direct
  0.5239868236795191  0.5971797495274649  0.5333660192069792
  0.4316613001072280  0.3857890931775908  0.4080566386104900
  0.6895024565669247  0.6591476377274983  0.4460253710499154
  0.5613023962157393  0.5471424317749375  0.7142008643112792
  0.3890391561989162  0.7405426907568687  0.5307945901708380
  0.5584628264630521  0.2485187744991336  0.3981850951491068
  0.3872391252566918  0.4247353754913895  0.2373424696711817
  0.2757251510953542  0.3089843515292302  0.4821845757802171
  0.9965124798049654  0.0320723828028108 -0.0383104977331500
  0.9873570997873118  0.0395879952956393  0.4631842760653272
  0.0063324935637221  0.5291806241749127 -0.0368847585891504
  0.4968105362069091  0.0350318380744734  0.9592906147366220
 
  0.00000000E+00  0.00000000E+00  0.00000000E+00
  0.00000000E+00  0.00000000E+00  0.00000000E+00
  0.00000000E+00  0.00000000E+00  0.00000000E+00
  0.00000000E+00  0.00000000E+00  0.00000000E+00
  0.00000000E+00  0.00000000E+00  0.00000000E+00
  0.00000000E+00  0.00000000E+00  0.00000000E+00
  0.00000000E+00  0.00000000E+00  0.00000000E+00
  0.00000000E+00  0.00000000E+00  0.00000000E+00
  0.00000000E+00  0.00000000E+00  0.00000000E+00
  0.00000000E+00  0.00000000E+00  0.00000000E+00
  0.00000000E+00  0.00000000E+00  0.00000000E+00
  0.00000000E+00  0.00000000E+00  0.00000000E+00
