MA-Pb-I                                 
   1.00000000000000     
     6.2884187138843197    0.0009579558247489    0.0690993966769832
     0.0005978161223733    6.2287690412624563   -0.0003732067435118
     0.0697053521696059    0.0000445224912706    6.3737103126460282
   C    N    H    Pb   I 
     1     1     6     1     3
Direct
  0.4507279540489611  0.4817716038524495  0.5678687428748174
  0.5159258145135130  0.5685732060225615  0.3591000723593534
  0.5217307794370722  0.5802055966337926  0.6914444721292171
  0.5079087514041047  0.3144467181232104  0.5813517389180995
  0.2762760866569364  0.4839783938173960  0.5850960604314356
  0.6819259141455907  0.5691925421150469  0.3326440410178331
  0.4653526010743177  0.7262296329213611  0.3315082075103418
  0.4556724360608210  0.4720918611200648  0.2395087358098078
 -0.0172446702239255  0.0577104030082127  0.0557914764857667
  0.9705576839677433  0.0605843067435921  0.5532881980813250
  0.9972301141602617  0.5559545913254402  0.0576357739076429
  0.4796078188112957  0.0633133991155657  0.0531460428911053
 
  0.00000000E+00  0.00000000E+00  0.00000000E+00
  0.00000000E+00  0.00000000E+00  0.00000000E+00
  0.00000000E+00  0.00000000E+00  0.00000000E+00
  0.00000000E+00  0.00000000E+00  0.00000000E+00
  0.00000000E+00  0.00000000E+00  0.00000000E+00
  0.00000000E+00  0.00000000E+00  0.00000000E+00
  0.00000000E+00  0.00000000E+00  0.00000000E+00
  0.00000000E+00  0.00000000E+00  0.00000000E+00
  0.00000000E+00  0.00000000E+00  0.00000000E+00
  0.00000000E+00  0.00000000E+00  0.00000000E+00
  0.00000000E+00  0.00000000E+00  0.00000000E+00
  0.00000000E+00  0.00000000E+00  0.00000000E+00
