MA-Pb-I                                 
   1.00000000000000     
     5.6267413476480952    0.0000416704727542    0.0620815770375229
    -0.0000317550626923    5.5940171136319288    0.0000254647194750
     0.0578866146782483   -0.0000342937909938    5.7648243532177101
   C    N    H    Pb   Cl
     1     1     6     1     3
Direct
  0.4214348209031066  0.5827586707616450  0.5697416314312522
  0.4622329508956686  0.3487180750662236  0.4544420558671268
  0.4312148032483535  0.5606308774107306  0.7597306050921877
  0.2433991314472919  0.6498351047508694  0.5266624741063444
  0.5598668877828390  0.7095372108860407  0.5092228682625103
  0.3273550862310551  0.2259487976068436  0.5006347378862294
  0.6269746363294351  0.2701559122768454  0.4952028703267261
  0.4606604220986462  0.3572434711394010  0.2735570704814206
 -0.0557856330635307  0.0142000808685549 -0.0001485434784977
  0.9462756217875076  0.0210890482577877  0.5018584957491016
  0.9416693104864793  0.5123278249229034  0.0020762829706846
  0.4434311916132448  0.0172807571778156 -0.0033715994896817
 
  0.00000000E+00  0.00000000E+00  0.00000000E+00
  0.00000000E+00  0.00000000E+00  0.00000000E+00
  0.00000000E+00  0.00000000E+00  0.00000000E+00
  0.00000000E+00  0.00000000E+00  0.00000000E+00
  0.00000000E+00  0.00000000E+00  0.00000000E+00
  0.00000000E+00  0.00000000E+00  0.00000000E+00
  0.00000000E+00  0.00000000E+00  0.00000000E+00
  0.00000000E+00  0.00000000E+00  0.00000000E+00
  0.00000000E+00  0.00000000E+00  0.00000000E+00
  0.00000000E+00  0.00000000E+00  0.00000000E+00
  0.00000000E+00  0.00000000E+00  0.00000000E+00
  0.00000000E+00  0.00000000E+00  0.00000000E+00
