MA-Pb-I                                 
   1.0000000000000000     
     5.6267413476480952    0.0000416704727542    0.0620815770375229
    -0.0000317550626923    5.5940171136319288    0.0000254647194750
     0.0578866146782483   -0.0000342937909938    5.7648243532177101
   C    N    H    Pb   Cl
     1     1     6     1     3
Direct
  0.3905453119623354  0.5648420743015097  0.5579585504155549 
  0.4667404763224644  0.3403201891031310  0.4520744359626170 
  0.3527404236761319  0.5303337609841441  0.7418806871620931 
  0.2286535390487721  0.6286521198525877  0.4671810801402420 
  0.5349830988387770  0.6968778644204336  0.5429484466876927 
  0.3335851742926441  0.2096103597249488  0.4622267250021477 
  0.6212299946286398  0.2736730136530728  0.5333750963209603 
  0.5059156605693276  0.3590796271464395  0.2768018323930027 
  0.1112395015032743  0.1662586638397566  0.1336241590986051 
  0.9135858188955126  0.0000223702692494  0.4744099460480626
  0.9004629834686284  0.5000248740275239  0.0232973215355017
  0.4490472465535831  0.0000309138028598  0.9238306684389244

  0.00000000E+00  0.00000000E+00  0.00000000E+00
  0.00000000E+00  0.00000000E+00  0.00000000E+00
  0.00000000E+00  0.00000000E+00  0.00000000E+00
  0.00000000E+00  0.00000000E+00  0.00000000E+00
  0.00000000E+00  0.00000000E+00  0.00000000E+00
  0.00000000E+00  0.00000000E+00  0.00000000E+00
  0.00000000E+00  0.00000000E+00  0.00000000E+00
  0.00000000E+00  0.00000000E+00  0.00000000E+00
  0.00000000E+00  0.00000000E+00  0.00000000E+00
  0.00000000E+00  0.00000000E+00  0.00000000E+00
  0.00000000E+00  0.00000000E+00  0.00000000E+00
  0.00000000E+00  0.00000000E+00  0.00000000E+00
