MA-Pb-I                                 
   1.00000000000000     
     6.2884187138843197    0.0009579558247489    0.0690993966769832
     0.0005978161223733    6.2287690412624563   -0.0003732067435118
     0.0697053521696059    0.0000445224912706    6.3737103126460282
   C    N    H    Pb   I 
     1     1     6     1     3
Direct
  0.5438283544387522  0.3500078704965672  0.6849906792651236
  0.6208690353554290  0.4636257431651483  0.4933722344542317
  0.4804376528560172  0.1918403217035381  0.6390762353372321
  0.4148690243053382  0.4455355804610250  0.7603087807424254
  0.6763759530096078  0.3284343247710652  0.7936357915600699
  0.4958855294390345  0.4743500852111965  0.3861964421755978
  0.7479064442983925  0.3854966805198764  0.4159381556926727
  0.6704346474820736  0.6205257490496877  0.5193973249034892
  0.1545747793006242 -0.0897954158921096  0.1874201509447502
  0.6562071954072243  0.9243263629264907  0.1911817732392489
  0.1454317539828607  0.4082132845737803  0.1912512507650813
  0.1542901605503143  0.8929797169084758  0.6857889125795895
 
  0.00000000E+00  0.00000000E+00  0.00000000E+00
  0.00000000E+00  0.00000000E+00  0.00000000E+00
  0.00000000E+00  0.00000000E+00  0.00000000E+00
  0.00000000E+00  0.00000000E+00  0.00000000E+00
  0.00000000E+00  0.00000000E+00  0.00000000E+00
  0.00000000E+00  0.00000000E+00  0.00000000E+00
  0.00000000E+00  0.00000000E+00  0.00000000E+00
  0.00000000E+00  0.00000000E+00  0.00000000E+00
  0.00000000E+00  0.00000000E+00  0.00000000E+00
  0.00000000E+00  0.00000000E+00  0.00000000E+00
  0.00000000E+00  0.00000000E+00  0.00000000E+00
  0.00000000E+00  0.00000000E+00  0.00000000E+00
