MA-Pb-I                                 
   1.00000000000000     
     6.2884187138843197    0.0009579558247489    0.0690993966769832
     0.0005978161223733    6.2287690412624563   -0.0003732067435118
     0.0697053521696059    0.0000445224912706    6.3737103126460282
   C    N    H    Pb   I 
     1     1     6     1     3
Direct
  0.4999087413827035  0.4695574644611851  0.4663859457994959
  0.4724890914525255  0.5981293287723710  0.6572014853159632
  0.3478617285131640  0.3905423562887185  0.4227430636687493
  0.5931871478460553  0.3230234477909003  0.5049754214208666
  0.5549469980518870  0.5660211207878438  0.3313159337241187
  0.4347963127823304  0.4843872986559682  0.7812586512886731
  0.3564005353757235  0.7175249551495194  0.6467138921743772
  0.6112290901908172  0.6787096129460395  0.6978563717525770
  0.9760459212366602  0.4125696704374581  0.4201794397251329
 -0.0166929576056856 -0.0953613737351711  0.4365314174313213
 -0.0288325604841046  0.4251311477122161 -0.0753486776733761
  0.4690120242370605  0.1125854277512372  0.9071704592938912
 
  0.00000000E+00  0.00000000E+00  0.00000000E+00
  0.00000000E+00  0.00000000E+00  0.00000000E+00
  0.00000000E+00  0.00000000E+00  0.00000000E+00
  0.00000000E+00  0.00000000E+00  0.00000000E+00
  0.00000000E+00  0.00000000E+00  0.00000000E+00
  0.00000000E+00  0.00000000E+00  0.00000000E+00
  0.00000000E+00  0.00000000E+00  0.00000000E+00
  0.00000000E+00  0.00000000E+00  0.00000000E+00
  0.00000000E+00  0.00000000E+00  0.00000000E+00
  0.00000000E+00  0.00000000E+00  0.00000000E+00
  0.00000000E+00  0.00000000E+00  0.00000000E+00
  0.00000000E+00  0.00000000E+00  0.00000000E+00
