MA-Pb-I                                 
   1.0000000000000000     
     5.8857348584972646   -0.0000116429338373    0.0677019167604032
    -0.0000113721705701    5.8535748976198549   -0.0000048572736550
     0.0678468051824150   -0.0000044748208102    6.0066012361495211
   C    N    H    Pb   Br
     1     1     6     1     3
Direct
  0.2937202028324354  0.4292641109996746  0.3138520420083788 
  0.1274321818742074  0.1806117680848389  0.4060247190169936 
  0.3628297352450229  0.5917891147899028  0.2649327780068309 
  0.1617296360600227  0.8656213828168136  0.4969277870630360 
  0.6622507012440189  0.1851242002401505  0.8528550318760972 
  0.8178384323779623  0.8361104148005888  0.0221620592546843 
  0.3044908411444225  0.1644865788039813  0.3879726453543932 
  0.0699784297529946  0.0272825505657202  0.4630456563822988 
  0.5457091685659493  0.5889839754765300  0.5526094236224834 
  0.4343825501137815  0.4999407920523851  0.9818407606070920
  0.4217797225331665  0.9999416700962840  0.5296464633737443
  0.9610032600387797  0.4999434169907246  0.4296279775420402

  0.00000000E+00  0.00000000E+00  0.00000000E+00
  0.00000000E+00  0.00000000E+00  0.00000000E+00
  0.00000000E+00  0.00000000E+00  0.00000000E+00
  0.00000000E+00  0.00000000E+00  0.00000000E+00
  0.00000000E+00  0.00000000E+00  0.00000000E+00
  0.00000000E+00  0.00000000E+00  0.00000000E+00
  0.00000000E+00  0.00000000E+00  0.00000000E+00
  0.00000000E+00  0.00000000E+00  0.00000000E+00
  0.00000000E+00  0.00000000E+00  0.00000000E+00
  0.00000000E+00  0.00000000E+00  0.00000000E+00
  0.00000000E+00  0.00000000E+00  0.00000000E+00
  0.00000000E+00  0.00000000E+00  0.00000000E+00
