MA-Pb-I                                 
   1.00000000000000     
     5.8857348584972646   -0.0000116429338373    0.0677019167604032
    -0.0000113721705701    5.8535748976198549   -0.0000048572736550
     0.0678468051824150   -0.0000044748208102    6.0066012361495211
   C    N    H    Pb   Br
     1     1     6     1     3
Direct
  0.9296369191325263  0.3381048852526888  0.4452330507748634
  0.8600233084340700  0.3028097661601497  0.6510370248562997
  0.8108784700758371  0.2863356988739156  0.3178819562911526
  0.2986094375031191  0.0367649056851974  0.1352890853650342
  0.2525418403398617  0.0333146905072047  0.8720072506919736
  0.2601944690952296  0.8935935119110308  0.8893917537204225
  0.9741054818466157  0.3349152008441870  0.7784496781505861
  0.6959289154915494  0.2712003907820554  0.7010239473471485
  0.2968073627630898  0.5235662770827012  0.3645396065566702
  0.3164984227210536  0.5025347761712021  0.8697136259342613
  0.3616208924841136  0.0356828573685356  0.3755996712271601
 -0.1527269426023376  0.7244117365196444  0.3077354314202138
 
  0.00000000E+00  0.00000000E+00  0.00000000E+00
  0.00000000E+00  0.00000000E+00  0.00000000E+00
  0.00000000E+00  0.00000000E+00  0.00000000E+00
  0.00000000E+00  0.00000000E+00  0.00000000E+00
  0.00000000E+00  0.00000000E+00  0.00000000E+00
  0.00000000E+00  0.00000000E+00  0.00000000E+00
  0.00000000E+00  0.00000000E+00  0.00000000E+00
  0.00000000E+00  0.00000000E+00  0.00000000E+00
  0.00000000E+00  0.00000000E+00  0.00000000E+00
  0.00000000E+00  0.00000000E+00  0.00000000E+00
  0.00000000E+00  0.00000000E+00  0.00000000E+00
  0.00000000E+00  0.00000000E+00  0.00000000E+00
