MA-Pb-I                                 
   1.00000000000000     
     6.2884187138843197    0.0009579558247489    0.0690993966769832
     0.0005978161223733    6.2287690412624563   -0.0003732067435118
     0.0697053521696059    0.0000445224912706    6.3737103126460282
   C    N    H    Pb   I 
     1     1     6     1     3
Direct
  0.4211603642278053  0.6161972493037379  0.5957851412910695
  0.4047778184072961  0.3693862285884709  0.5438000913609814
  0.4403464864993097  0.6203256106236678  0.7742728869779463
  0.2729398529167453  0.6904344308743072  0.5607035462039004
  0.5665330509972124  0.7018872178516021  0.5255621356889756
  0.2632057300708825  0.3146397263519148  0.6170425692559798
  0.5242009096968719  0.2782271101502964  0.6211099798165821
  0.3899250434577346  0.3333688558717727  0.3803872053814223
  0.8837704374363781  0.4027016709692041  0.2904499347037991
  0.8969610894578151  0.9125800309519406  0.3138295869420034
 -0.0067680825620862  0.4569635906004701 -0.1603727894608513
  0.4873361894023134  0.2124424994634095  0.0447092629698310
 
  0.00000000E+00  0.00000000E+00  0.00000000E+00
  0.00000000E+00  0.00000000E+00  0.00000000E+00
  0.00000000E+00  0.00000000E+00  0.00000000E+00
  0.00000000E+00  0.00000000E+00  0.00000000E+00
  0.00000000E+00  0.00000000E+00  0.00000000E+00
  0.00000000E+00  0.00000000E+00  0.00000000E+00
  0.00000000E+00  0.00000000E+00  0.00000000E+00
  0.00000000E+00  0.00000000E+00  0.00000000E+00
  0.00000000E+00  0.00000000E+00  0.00000000E+00
  0.00000000E+00  0.00000000E+00  0.00000000E+00
  0.00000000E+00  0.00000000E+00  0.00000000E+00
  0.00000000E+00  0.00000000E+00  0.00000000E+00
