MA-Pb-I                                 
   1.00000000000000     
     5.8892445321787328   -0.0048008041779134    0.0656571269169357
    -0.0053334077729528    5.8544884580747532    0.0012821621476484
     0.0639774282558244    0.0006908469467942    6.0230320529523143
   C    N    H    Pb   Br
     1     1     6     1     3
Direct
  0.5624849539173756  0.6764411190210009  0.4441371972330408
  0.9478690694655518  0.3621414592407389  0.5186853299009209
  0.4906591492492739  0.7475075362680935  0.6003768180488678
  0.7290283474739675  0.7409972692004452  0.3791797958321841
  0.3808324502620052  0.4000256927390647  0.0232091167199473
  0.0873450845057219  0.0123623464643294  0.9300808425093723
 -0.0882308235449724  0.5328490848211754  0.4947906517857068
  0.0619522813502132  0.3174797196841974  0.3890210274449190
  0.5803179991705160  0.2591207453581575  0.4763361080881253
  0.5872663043600939  0.2508211333768573  0.9723163975828089
  0.1038934507973902  0.9106110454511542  0.7144399373707032
  0.3500310582315537 -0.2677411937014021  0.1941158983026586
 
  0.00000000E+00  0.00000000E+00  0.00000000E+00
  0.00000000E+00  0.00000000E+00  0.00000000E+00
  0.00000000E+00  0.00000000E+00  0.00000000E+00
  0.00000000E+00  0.00000000E+00  0.00000000E+00
  0.00000000E+00  0.00000000E+00  0.00000000E+00
  0.00000000E+00  0.00000000E+00  0.00000000E+00
  0.00000000E+00  0.00000000E+00  0.00000000E+00
  0.00000000E+00  0.00000000E+00  0.00000000E+00
  0.00000000E+00  0.00000000E+00  0.00000000E+00
  0.00000000E+00  0.00000000E+00  0.00000000E+00
  0.00000000E+00  0.00000000E+00  0.00000000E+00
  0.00000000E+00  0.00000000E+00  0.00000000E+00
