MA-Pb-I                                 
   1.00000000000000     
     5.6267413476480952    0.0000416704727542    0.0620815770375229
    -0.0000317550626923    5.5940171136319288    0.0000254647194750
     0.0578866146782483   -0.0000342937909938    5.7648243532177101
   C    N    H    Pb   Cl
     1     1     6     1     3
Direct
  0.3702737912555568  0.2657969641185158  0.4574289958194730
  0.4204707238133975  0.4885472010893827  0.3234676809395117
  0.3147501397340511  0.3196551154022304  0.6381780878306745
  0.5334107801303861  0.1574988186518517  0.4555815613991653
  0.2250056014140462  0.1703912709300636  0.3727411922934713
  0.4452941449271779  0.6297871555119489  0.4442662016322322
  0.2731728063636129  0.5374558287517599  0.2249970143843687
  0.5714409609721860  0.4708564177664387  0.2180756731085462
 -0.0969174701218519  0.7762979182574209  0.8130941407225062
  0.8941397468556324  0.2804675166630267  0.8068767887375232
  0.9141708648005045  0.7674777271374593  0.3233663651973735
  0.4059346413418399 -0.2223369601747527  0.8042566943325949
 
  0.00000000E+00  0.00000000E+00  0.00000000E+00
  0.00000000E+00  0.00000000E+00  0.00000000E+00
  0.00000000E+00  0.00000000E+00  0.00000000E+00
  0.00000000E+00  0.00000000E+00  0.00000000E+00
  0.00000000E+00  0.00000000E+00  0.00000000E+00
  0.00000000E+00  0.00000000E+00  0.00000000E+00
  0.00000000E+00  0.00000000E+00  0.00000000E+00
  0.00000000E+00  0.00000000E+00  0.00000000E+00
  0.00000000E+00  0.00000000E+00  0.00000000E+00
  0.00000000E+00  0.00000000E+00  0.00000000E+00
  0.00000000E+00  0.00000000E+00  0.00000000E+00
  0.00000000E+00  0.00000000E+00  0.00000000E+00
