MA-Pb-I                                 
   1.00000000000000     
     5.6267413476480952    0.0000416704727542    0.0620815770375229
    -0.0000317550626923    5.5940171136319288    0.0000254647194750
     0.0578866146782483   -0.0000342937909938    5.7648243532177101
   C    N    H    Pb   Cl
     1     1     6     1     3
Direct
  0.4274916195239378  0.3359215940767191  0.5372724182110638
  0.3421231843624306  0.5095389796806623  0.3628390136601957
  0.4492507790930189  0.1581787195925038  0.4549020281612646
  0.2964390495366595  0.3248936852648406  0.6814653536382786
  0.5999381516516064  0.3957154472438406  0.6041631976039521
  0.2003882271851513  0.4459075049672240  0.2625005714286643
  0.4740880083949505  0.5617739263832789  0.2432824094204432
  0.2755099597272291  0.6669526763933206  0.4387374782195590
  0.9059048684746610 -0.0619333324203853 -0.0096203889339160
  0.9117224109211710 -0.0682198108652389  0.4875222595675043
  0.9020322196403854  0.4369512784547043 -0.0011375386864486
  0.4070239910534821 -0.0565757132652945  0.9912546197884600
 
  0.00000000E+00  0.00000000E+00  0.00000000E+00
  0.00000000E+00  0.00000000E+00  0.00000000E+00
  0.00000000E+00  0.00000000E+00  0.00000000E+00
  0.00000000E+00  0.00000000E+00  0.00000000E+00
  0.00000000E+00  0.00000000E+00  0.00000000E+00
  0.00000000E+00  0.00000000E+00  0.00000000E+00
  0.00000000E+00  0.00000000E+00  0.00000000E+00
  0.00000000E+00  0.00000000E+00  0.00000000E+00
  0.00000000E+00  0.00000000E+00  0.00000000E+00
  0.00000000E+00  0.00000000E+00  0.00000000E+00
  0.00000000E+00  0.00000000E+00  0.00000000E+00
  0.00000000E+00  0.00000000E+00  0.00000000E+00
