MA-Pb-I                                 
   1.0000000000000000     
     5.6267413476480952    0.0000416704727542    0.0620815770375229
    -0.0000317550626923    5.5940171136319288    0.0000254647194750
     0.0578866146782483   -0.0000342937909938    5.7648243532177101
   C    N    H    Pb   Cl
     1     1     6     1     3
Direct
  0.4730231798988363  0.2913260830778998  0.5188531102333450 
  0.3551405637891394  0.4691739832654246  0.3708631142322442 
  0.4689075767257591  0.1264504686821918  0.4226944952271290 
  0.3760877368176753  0.2723310148380646  0.6884524157069694 
  0.6589260268103816  0.3454320814272363  0.5510043126497127 
  0.1769901256978811  0.4244356036254424  0.3365212779017578 
  0.4425760932029736  0.4930761282251850  0.2074545150120908 
  0.3521133143527076  0.6310901991039272  0.4507447263087206 
  0.6250518033515987  0.0957112351611666  0.0850555187845718 
  0.9135858188955126  0.0000223702692494  0.4744099460480626
  0.9004629834686284  0.5000248740275239  0.0232973215355017
  0.4490472465535831  0.0000309138028598  0.9238306684389244

  0.00000000E+00  0.00000000E+00  0.00000000E+00
  0.00000000E+00  0.00000000E+00  0.00000000E+00
  0.00000000E+00  0.00000000E+00  0.00000000E+00
  0.00000000E+00  0.00000000E+00  0.00000000E+00
  0.00000000E+00  0.00000000E+00  0.00000000E+00
  0.00000000E+00  0.00000000E+00  0.00000000E+00
  0.00000000E+00  0.00000000E+00  0.00000000E+00
  0.00000000E+00  0.00000000E+00  0.00000000E+00
  0.00000000E+00  0.00000000E+00  0.00000000E+00
  0.00000000E+00  0.00000000E+00  0.00000000E+00
  0.00000000E+00  0.00000000E+00  0.00000000E+00
  0.00000000E+00  0.00000000E+00  0.00000000E+00
