MA-Pb-I                                 
   1.00000000000000     
     5.6267413476480952    0.0000416704727542    0.0620815770375229
    -0.0000317550626923    5.5940171136319288    0.0000254647194750
     0.0578866146782483   -0.0000342937909938    5.7648243532177101
   C    N    H    Pb   Cl
     1     1     6     1     3
Direct
  0.4335641122591749  0.5420137292995219  0.5041957664101226
  0.4560234964758092  0.3018251488487201  0.5947413883857205
  0.3450657967896851  0.6686926489481223  0.6292153589761220
  0.3906942747314937  0.5666521651468732  0.3170223183998214
  0.6082582679103156  0.6461219429627509  0.5104132531651923
  0.3007910176092763  0.2049765390664265  0.5670394106058837
  0.4853468365784337  0.1477441210146237  0.8409603361503174
  0.5900900138366069  0.2085784149015525  0.5068595041082181
 -0.0352313230975273  0.5513842633884362  0.4954354421127687
  0.9589299014626926  0.0336382287560413  0.4925646320847435
  0.9630206469223780  0.5417762349823738  0.0074182479709502
  0.4841957220949564 -0.0566772350378784  0.9742675281799061
 
  0.00000000E+00  0.00000000E+00  0.00000000E+00
  0.00000000E+00  0.00000000E+00  0.00000000E+00
  0.00000000E+00  0.00000000E+00  0.00000000E+00
  0.00000000E+00  0.00000000E+00  0.00000000E+00
  0.00000000E+00  0.00000000E+00  0.00000000E+00
  0.00000000E+00  0.00000000E+00  0.00000000E+00
  0.00000000E+00  0.00000000E+00  0.00000000E+00
  0.00000000E+00  0.00000000E+00  0.00000000E+00
  0.00000000E+00  0.00000000E+00  0.00000000E+00
  0.00000000E+00  0.00000000E+00  0.00000000E+00
  0.00000000E+00  0.00000000E+00  0.00000000E+00
  0.00000000E+00  0.00000000E+00  0.00000000E+00
