MA-Pb-I                                 
   1.00000000000000     
     5.6267413476480952    0.0000416704727542    0.0620815770375229
    -0.0000317550626923    5.5940171136319288    0.0000254647194750
     0.0578866146782483   -0.0000342937909938    5.7648243532177101
   C    N    H    Pb   Cl
     1     1     6     1     3
Direct
  0.5042372790501892  0.6857186832722049  0.5884442781664978
  0.3996542755468869  0.5172821714770395  0.7484404323263255
  0.5801642510203302  0.8422666109392323  0.6778954652532113
  0.3636063228874644  0.7585472471461453  0.4612824827616110
  0.6561417881893521  0.6133277502090895  0.4779775149090791
  0.2322987759275158  0.5746356998445783  0.8006284147908914
  0.3657597976596136  0.3508881124173486  0.6662047003159327
  0.2693641126578467  0.3864748338500668  0.1316283942105729
 -0.1882605838256839  0.1829979392511343  0.0891301793822641
  0.8497958647432404  0.1687216712928589  0.5930154686858585
  0.8526281116735508  0.6771912228255724  0.0802780630895159
  0.2955890890657902  0.1549765265825151  0.1093837731305402
 
  0.00000000E+00  0.00000000E+00  0.00000000E+00
  0.00000000E+00  0.00000000E+00  0.00000000E+00
  0.00000000E+00  0.00000000E+00  0.00000000E+00
  0.00000000E+00  0.00000000E+00  0.00000000E+00
  0.00000000E+00  0.00000000E+00  0.00000000E+00
  0.00000000E+00  0.00000000E+00  0.00000000E+00
  0.00000000E+00  0.00000000E+00  0.00000000E+00
  0.00000000E+00  0.00000000E+00  0.00000000E+00
  0.00000000E+00  0.00000000E+00  0.00000000E+00
  0.00000000E+00  0.00000000E+00  0.00000000E+00
  0.00000000E+00  0.00000000E+00  0.00000000E+00
  0.00000000E+00  0.00000000E+00  0.00000000E+00
