MA-Pb-I                                 
   1.0000000000000000     
     5.6267413476480952    0.0000416704727542    0.0620815770375229
    -0.0000317550626923    5.5940171136319288    0.0000254647194750
     0.0578866146782483   -0.0000342937909938    5.7648243532177101
   C    N    H    Pb   Cl
     1     1     6     1     3
Direct
  0.5338497829364605  0.6679364772256925  0.4913506091541805 
  0.3724651193734593  0.4647344173662666  0.5008972805074354 
  0.6428382565709545  0.6606176562029836  0.6479243397906282 
  0.4298465265593505  0.8343771169890410  0.4899176897436452 
  0.6462016126933299  0.6550766081205766  0.3309364031719894 
  0.2616157744239320  0.4706299268132272  0.6512173677216527 
  0.4647752651907543  0.3022646867814808  0.5019356732772924 
  0.2629014626951652  0.4597186684958259  0.3574478310937231 
  0.3033892352349685  0.8975947530130655  0.0311440365392677 
  0.9135858188955126  0.0000223702692494  0.4744099460480626
  0.9004629834686284  0.5000248740275239  0.0232973215355017
  0.4490472465535831  0.0000309138028598  0.9238306684389244

  0.00000000E+00  0.00000000E+00  0.00000000E+00
  0.00000000E+00  0.00000000E+00  0.00000000E+00
  0.00000000E+00  0.00000000E+00  0.00000000E+00
  0.00000000E+00  0.00000000E+00  0.00000000E+00
  0.00000000E+00  0.00000000E+00  0.00000000E+00
  0.00000000E+00  0.00000000E+00  0.00000000E+00
  0.00000000E+00  0.00000000E+00  0.00000000E+00
  0.00000000E+00  0.00000000E+00  0.00000000E+00
  0.00000000E+00  0.00000000E+00  0.00000000E+00
  0.00000000E+00  0.00000000E+00  0.00000000E+00
  0.00000000E+00  0.00000000E+00  0.00000000E+00
  0.00000000E+00  0.00000000E+00  0.00000000E+00
