MA-Pb-I                                 
   1.00000000000000     
     5.8892445321787328   -0.0048008041779134    0.0656571269169357
    -0.0053334077729528    5.8544884580747532    0.0012821621476484
     0.0639774282558244    0.0006908469467942    6.0230320529523143
   C    N    H    Pb   Br
     1     1     6     1     3
Direct
  0.2662786400804260  0.9344590891355445  0.6794373290722294
 -0.1074349734284103  0.8339993505230391  0.0954737177579337
  0.1592545756381006 -0.2125136025369952  0.6295362268920514
  0.3521393837789080  0.9162555625488192  0.8416110661108823
  0.1771501141407238  0.0991250578420403  0.6590323513213282
  0.8770472314947743  0.6586632296345833  0.0633885140841357
 -0.1363123440348587  0.9145470301909451  0.9487928398311050
  0.0561585949843299  0.8635617251793704  0.1377637528015395
  0.5139134866159286  0.4269374710610019  0.4264132467959919
  0.5087978774312857  0.4471331916126324 -0.0726345159921134
  0.5150519060866807 -0.0605703601682471  0.4398456423804213
  0.0104260281332675  0.4329547776062082  0.4340441844879042
 
  0.00000000E+00  0.00000000E+00  0.00000000E+00
  0.00000000E+00  0.00000000E+00  0.00000000E+00
  0.00000000E+00  0.00000000E+00  0.00000000E+00
  0.00000000E+00  0.00000000E+00  0.00000000E+00
  0.00000000E+00  0.00000000E+00  0.00000000E+00
  0.00000000E+00  0.00000000E+00  0.00000000E+00
  0.00000000E+00  0.00000000E+00  0.00000000E+00
  0.00000000E+00  0.00000000E+00  0.00000000E+00
  0.00000000E+00  0.00000000E+00  0.00000000E+00
  0.00000000E+00  0.00000000E+00  0.00000000E+00
  0.00000000E+00  0.00000000E+00  0.00000000E+00
  0.00000000E+00  0.00000000E+00  0.00000000E+00
