MA-Pb-I                                 
   1.00000000000000     
     5.8892445321787328   -0.0048008041779134    0.0656571269169357
    -0.0053334077729528    5.8544884580747532    0.0012821621476484
     0.0639774282558244    0.0006908469467942    6.0230320529523143
   C    N    H    Pb   Br
     1     1     6     1     3
Direct
  0.8565184284678898  0.2941620428770356  0.7662171683817258 
  0.8897146704850456  0.0865802854099657  0.4254212197138611 
  0.8150261191765331  0.1726806043372593  0.8963989760249640 
  0.7698957707675363  0.2760905709433698  0.0346927607907312 
  0.5335230696914490  0.8432250040408025  0.5499233779099932 
  0.2504444073981433  0.5481084639194982  0.0568568611173550 
  0.0068168447823288  0.1028981195147053  0.5591552466809635 
  0.9414335009097703  0.1960029094633684  0.3018808442079512 
  0.4891712014060964  0.5150852639369486  0.4576608090373313 
  0.4352272726238539  0.4972012503325617  0.9832769846011953
  0.4159970891092727  0.9985715009710078  0.5336351900357424
  0.9598885390497535  0.4995712578389358  0.4264000332832606
 
  0.00000000E+00  0.00000000E+00  0.00000000E+00
  0.00000000E+00  0.00000000E+00  0.00000000E+00
  0.00000000E+00  0.00000000E+00  0.00000000E+00
  0.00000000E+00  0.00000000E+00  0.00000000E+00
  0.00000000E+00  0.00000000E+00  0.00000000E+00
  0.00000000E+00  0.00000000E+00  0.00000000E+00
  0.00000000E+00  0.00000000E+00  0.00000000E+00
  0.00000000E+00  0.00000000E+00  0.00000000E+00
  0.00000000E+00  0.00000000E+00  0.00000000E+00
  0.00000000E+00  0.00000000E+00  0.00000000E+00
  0.00000000E+00  0.00000000E+00  0.00000000E+00
  0.00000000E+00  0.00000000E+00  0.00000000E+00
