MA-Pb-I                                 
   1.00000000000000     
     5.6267413476480952    0.0000416704727542    0.0620815770375229
    -0.0000317550626923    5.5940171136319288    0.0000254647194750
     0.0578866146782483   -0.0000342937909938    5.7648243532177101
   C    N    H    Pb   Cl
     1     1     6     1     3
Direct
  0.4530119992493524  0.4852442465196454  0.4464462907183805
  0.3881184062428444  0.4639358815103188  0.6960727513866928
  0.3730091138292395  0.6500772028020028  0.3780420152652814
  0.3849214103226384  0.3279577190353916  0.3536000528733832
  0.6478517628519943  0.4953313345626350  0.4236296463792981
  0.2042269523291340  0.4601879358866794  0.7316108450689964
  0.4502267607683010  0.6111746689012502  0.7908342166406497
  0.4540450587787035  0.3073525089770378  0.7732948305027467
 -0.0637611099656368  0.9648394639315580  0.0250945520040044
 -0.0617614009453125 -0.0417081222856802  0.5277640816081332
  0.9325151816193574  0.4658367655599493 -0.9771101320643006
  0.4371210723216706 -0.0305844977276453  0.0182069931269617
 
  0.00000000E+00  0.00000000E+00  0.00000000E+00
  0.00000000E+00  0.00000000E+00  0.00000000E+00
  0.00000000E+00  0.00000000E+00  0.00000000E+00
  0.00000000E+00  0.00000000E+00  0.00000000E+00
  0.00000000E+00  0.00000000E+00  0.00000000E+00
  0.00000000E+00  0.00000000E+00  0.00000000E+00
  0.00000000E+00  0.00000000E+00  0.00000000E+00
  0.00000000E+00  0.00000000E+00  0.00000000E+00
  0.00000000E+00  0.00000000E+00  0.00000000E+00
  0.00000000E+00  0.00000000E+00  0.00000000E+00
  0.00000000E+00  0.00000000E+00  0.00000000E+00
  0.00000000E+00  0.00000000E+00  0.00000000E+00
