MA-Pb-I                                 
   1.00000000000000     
     5.8857348584972646   -0.0000116429338373    0.0677019167604032
    -0.0000113721705701    5.8535748976198549   -0.0000048572736550
     0.0678468051824150   -0.0000044748208102    6.0066012361495211
   C    N    H    Pb   Br
     1     1     6     1     3
Direct
  0.0146761696556933  0.6363973887515877  0.7030952416958732
  0.8181277802458716  0.9480232254677670  0.2150105848279935
 -0.0922972970268807  0.7807805878604985  0.6314683843428055
  0.7739543082593222  0.0531272662170673  0.0843651134403165
 -0.0189916102752615  0.6316318337039915  0.8846805908515304
  0.7208407192683832  0.0000498499825359  0.3554051684060708
  0.9871269155179931  0.9639502811593802  0.2507153217190607
  0.7659573012037492  0.7764958636706163  0.1853342262286325
  0.4205410656921678  0.5833429250776616  0.6710866027695327
  0.4196962267304324  0.5689648074137654  0.1725703251643997
  0.4546444665535036  0.0605708141235931  0.6654107981634847
  0.9170485437607333  0.3444431784634261  0.5832386220774505
 
  0.00000000E+00  0.00000000E+00  0.00000000E+00
  0.00000000E+00  0.00000000E+00  0.00000000E+00
  0.00000000E+00  0.00000000E+00  0.00000000E+00
  0.00000000E+00  0.00000000E+00  0.00000000E+00
  0.00000000E+00  0.00000000E+00  0.00000000E+00
  0.00000000E+00  0.00000000E+00  0.00000000E+00
  0.00000000E+00  0.00000000E+00  0.00000000E+00
  0.00000000E+00  0.00000000E+00  0.00000000E+00
  0.00000000E+00  0.00000000E+00  0.00000000E+00
  0.00000000E+00  0.00000000E+00  0.00000000E+00
  0.00000000E+00  0.00000000E+00  0.00000000E+00
  0.00000000E+00  0.00000000E+00  0.00000000E+00
