MA-Pb-I                                 
   1.00000000000000     
     5.8892445321787328   -0.0048008041779134    0.0656571269169357
    -0.0053334077729528    5.8544884580747532    0.0012821621476484
     0.0639774282558244    0.0006908469467942    6.0230320529523143
   C    N    H    Pb   Br
     1     1     6     1     3
Direct
  0.8699562477284792  0.9411745977272565  0.8815848971586300 
  0.8906735259119087  0.6113121872769751  0.9469349973849517 
  0.8349943297027076  0.1095892555094738  0.9435592629346665 
  0.6862560543789830  0.0990858916612583  0.3892881717929795 
  0.5494514009382527  0.8364654493551913  0.0142369676813989 
  0.1348252334492230  0.9970658669829566  0.2165726118623469 
  0.9935407921937685  0.7277582808706718  0.8590565943593860 
  0.9368322146120642  0.4541395713346631  0.8914686408189434 
  0.4225734351677454  0.4706357993773342  0.4557154124464037 
  0.4352272726238539  0.4972012503325617  0.9832769846011953
  0.4159970891092727  0.9985715009710078  0.5336351900357424
  0.9598885390497535  0.4995712578389358  0.4264000332832606
 
  0.00000000E+00  0.00000000E+00  0.00000000E+00
  0.00000000E+00  0.00000000E+00  0.00000000E+00
  0.00000000E+00  0.00000000E+00  0.00000000E+00
  0.00000000E+00  0.00000000E+00  0.00000000E+00
  0.00000000E+00  0.00000000E+00  0.00000000E+00
  0.00000000E+00  0.00000000E+00  0.00000000E+00
  0.00000000E+00  0.00000000E+00  0.00000000E+00
  0.00000000E+00  0.00000000E+00  0.00000000E+00
  0.00000000E+00  0.00000000E+00  0.00000000E+00
  0.00000000E+00  0.00000000E+00  0.00000000E+00
  0.00000000E+00  0.00000000E+00  0.00000000E+00
  0.00000000E+00  0.00000000E+00  0.00000000E+00
