MA-Pb-I                                 
   1.00000000000000     
     5.6267413476480952    0.0000416704727542    0.0620815770375229
    -0.0000317550626923    5.5940171136319288    0.0000254647194750
     0.0578866146782483   -0.0000342937909938    5.7648243532177101
   C    N    H    Pb   Cl
     1     1     6     1     3
Direct
  0.5136695809466103  0.3533290489785500  0.4752067081718583
  0.4467077269645066  0.5904387996127834  0.5713383611198936
  0.6980169495389129  0.3117151513997345  0.5215928312097742
  0.4991012255882151  0.3566211988814768  0.2846398469742220
  0.3915631935844085  0.2167608827751832  0.5479187484866893
  0.5667213438758660  0.7223963391940293  0.5124144409012260
  0.4527687075002312  0.6006281997694067  0.7527576730050118
  0.2748569533711975  0.6487530615864260  0.5278712125119315
  0.9678570893905388  0.9169318303476506  0.0206640470634518
  0.9669515066581434 -0.0883805170691899  0.5187922169002209
  0.9683944611431362  0.4178472788273262  0.0161297327725200
  0.4689106951422427 -0.0848353880235247  0.0251449016296873
 
  0.00000000E+00  0.00000000E+00  0.00000000E+00
  0.00000000E+00  0.00000000E+00  0.00000000E+00
  0.00000000E+00  0.00000000E+00  0.00000000E+00
  0.00000000E+00  0.00000000E+00  0.00000000E+00
  0.00000000E+00  0.00000000E+00  0.00000000E+00
  0.00000000E+00  0.00000000E+00  0.00000000E+00
  0.00000000E+00  0.00000000E+00  0.00000000E+00
  0.00000000E+00  0.00000000E+00  0.00000000E+00
  0.00000000E+00  0.00000000E+00  0.00000000E+00
  0.00000000E+00  0.00000000E+00  0.00000000E+00
  0.00000000E+00  0.00000000E+00  0.00000000E+00
  0.00000000E+00  0.00000000E+00  0.00000000E+00
