MA-Pb-I                                 
   1.00000000000000     
     5.6267413476480952    0.0000416704727542    0.0620815770375229
    -0.0000317550626923    5.5940171136319288    0.0000254647194750
     0.0578866146782483   -0.0000342937909938    5.7648243532177101
   C    N    H    Pb   Cl
     1     1     6     1     3
Direct
  0.5324029802442076  0.5145934088090104  0.4328834639069636
  0.4994114387717690  0.4958926726036958  0.6820498281597889
  0.3611949465843231  0.4831567347951376  0.3339173672380307
  0.5888207254251822  0.6917547856637607  0.3601453291537642
  0.6165991343294194  0.3553307731327927  0.3490614561744754
  0.4568788709457613  0.2578071333238835  0.8316156108939250
  0.3824606924294282  0.6250042812815725  0.7441562433412887
  0.6590768293062996  0.5291024004048256  0.7660579172164813
  0.0019921406881206  0.4953350562335489 -0.5773979640741720
  0.0051293383432998 -0.0092334329353413  0.4316889263044588
 -0.0011680122978035  0.5002769086663529 -0.0494083777754726
  0.4581443427372031  0.0775147349761777  0.0016616914094478
 
  0.00000000E+00  0.00000000E+00  0.00000000E+00
  0.00000000E+00  0.00000000E+00  0.00000000E+00
  0.00000000E+00  0.00000000E+00  0.00000000E+00
  0.00000000E+00  0.00000000E+00  0.00000000E+00
  0.00000000E+00  0.00000000E+00  0.00000000E+00
  0.00000000E+00  0.00000000E+00  0.00000000E+00
  0.00000000E+00  0.00000000E+00  0.00000000E+00
  0.00000000E+00  0.00000000E+00  0.00000000E+00
  0.00000000E+00  0.00000000E+00  0.00000000E+00
  0.00000000E+00  0.00000000E+00  0.00000000E+00
  0.00000000E+00  0.00000000E+00  0.00000000E+00
  0.00000000E+00  0.00000000E+00  0.00000000E+00
