MA-Pb-I                                 
   1.00000000000000     
     5.8857348584972646   -0.0000116429338373    0.0677019167604032
    -0.0000113721705701    5.8535748976198549   -0.0000048572736550
     0.0678468051824150   -0.0000044748208102    6.0066012361495211
   C    N    H    Pb   Br
     1     1     6     1     3
Direct
  0.0192441044578204  0.6334810874613033  0.0112560591902161
  0.2622473119137443  0.6406647237448205  0.0604610576990904
  0.9356590276341824  0.7662880547483873  0.1133676229701030
  0.8635206573212451  0.7793595146155813  0.5366605002919698
 -0.0139562149932367  0.8383577392713963  0.5401252033201186
  0.9353092086699853  0.4673302153949130  0.0487420206810600
  0.2817214666137065  0.6818281605768620  0.2283292743289509
 -0.0017699850146461  0.6769900870517591 -0.1643074512762234
  0.4177104868723284  0.3131858745830770  0.5491692161827997
  0.3943743996183908  0.3381473493070679  0.0504657510712101
  0.4271668580559778  0.8221361912957276  0.5510956691183774
  0.9170887481067400  0.3091226571059295  0.5403831507730714
 
  0.00000000E+00  0.00000000E+00  0.00000000E+00
  0.00000000E+00  0.00000000E+00  0.00000000E+00
  0.00000000E+00  0.00000000E+00  0.00000000E+00
  0.00000000E+00  0.00000000E+00  0.00000000E+00
  0.00000000E+00  0.00000000E+00  0.00000000E+00
  0.00000000E+00  0.00000000E+00  0.00000000E+00
  0.00000000E+00  0.00000000E+00  0.00000000E+00
  0.00000000E+00  0.00000000E+00  0.00000000E+00
  0.00000000E+00  0.00000000E+00  0.00000000E+00
  0.00000000E+00  0.00000000E+00  0.00000000E+00
  0.00000000E+00  0.00000000E+00  0.00000000E+00
  0.00000000E+00  0.00000000E+00  0.00000000E+00
