MA-Pb-I                                 
   1.0000000000000000     
     5.8857348584972646   -0.0000116429338373    0.0677019167604032
    -0.0000113721705701    5.8535748976198549   -0.0000048572736550
     0.0678468051824150   -0.0000044748208102    6.0066012361495211
   C    N    H    Pb   Br
     1     1     6     1     3
Direct
  0.9111077597118176  0.5675705597553860  0.9722978804167982 
  0.1194738595156283  0.5387820411637549  0.1436561713513536 
  0.9121860315167692  0.4373713650435253  0.1012575863099607 
  0.7765724978639672  0.8753099508932487  0.5911349507275796 
  0.1057597244604098  0.9907767174556554  0.7132951288743345 
  0.9281591778332972  0.2951257283803791  0.9723314157338767 
  0.2387191829658639  0.4137973340389121  0.0978845236248898 
  0.1152133745776537  0.6524762162316222  0.0128217236719310 
  0.5139589281250967  0.4958558630549569  0.5199534921171390 
  0.4343825501137815  0.4999407920523851  0.9818407606070920
  0.4217797225331665  0.9999416700962840  0.5296464633737443
  0.9610032600387797  0.4999434169907246  0.4296279775420402

  0.00000000E+00  0.00000000E+00  0.00000000E+00
  0.00000000E+00  0.00000000E+00  0.00000000E+00
  0.00000000E+00  0.00000000E+00  0.00000000E+00
  0.00000000E+00  0.00000000E+00  0.00000000E+00
  0.00000000E+00  0.00000000E+00  0.00000000E+00
  0.00000000E+00  0.00000000E+00  0.00000000E+00
  0.00000000E+00  0.00000000E+00  0.00000000E+00
  0.00000000E+00  0.00000000E+00  0.00000000E+00
  0.00000000E+00  0.00000000E+00  0.00000000E+00
  0.00000000E+00  0.00000000E+00  0.00000000E+00
  0.00000000E+00  0.00000000E+00  0.00000000E+00
  0.00000000E+00  0.00000000E+00  0.00000000E+00
