MA-Pb-I                                 
   1.00000000000000     
     6.2884187138843197    0.0009579558247489    0.0690993966769832
     0.0005978161223733    6.2287690412624563   -0.0003732067435118
     0.0697053521696059    0.0000445224912706    6.3737103126460282
   C    N    H    Pb   I 
     1     1     6     1     3
Direct
  0.6049669910408040  0.4020350734500035  0.4792094844522967
  0.3818946084331384  0.4790862489046054  0.4748673934074022
  0.6062421969115493  0.2253919936279650  0.4915200914598305
  0.6827612299224980  0.4715042544941445  0.6169396130410753
  0.6892094512548926  0.4525213831618951  0.3337951053883080
  0.2958117490966722  0.4385721697832275  0.6131895383601371
  0.2995557450940251  0.4145020929566388  0.3487549418782493
  0.3665008878553012  0.6462538960093963  0.4610842568760675
  0.0535205784940816  0.9469164188707158  0.9558141529756186
  0.0567911829251476  0.9516058477409339  0.4562371566410419
  0.0552783243613489  0.4457628985472362 -0.0390431188678733
  0.5512119887928284  0.9453315137270145  0.9508367501961741
 
  0.00000000E+00  0.00000000E+00  0.00000000E+00
  0.00000000E+00  0.00000000E+00  0.00000000E+00
  0.00000000E+00  0.00000000E+00  0.00000000E+00
  0.00000000E+00  0.00000000E+00  0.00000000E+00
  0.00000000E+00  0.00000000E+00  0.00000000E+00
  0.00000000E+00  0.00000000E+00  0.00000000E+00
  0.00000000E+00  0.00000000E+00  0.00000000E+00
  0.00000000E+00  0.00000000E+00  0.00000000E+00
  0.00000000E+00  0.00000000E+00  0.00000000E+00
  0.00000000E+00  0.00000000E+00  0.00000000E+00
  0.00000000E+00  0.00000000E+00  0.00000000E+00
  0.00000000E+00  0.00000000E+00  0.00000000E+00
