MA-Pb-I                                 
   1.00000000000000     
     5.8857348584972646   -0.0000116429338373    0.0677019167604032
    -0.0000113721705701    5.8535748976198549   -0.0000048572736550
     0.0678468051824150   -0.0000044748208102    6.0066012361495211
   C    N    H    Pb   Br
     1     1     6     1     3
Direct
  0.9720169335363621  0.1081755005367606  0.6534639533275753
  0.9732791894860959  0.6436463671180718  0.0742944170173626
 -0.0074699721430401  0.2050713594757946  0.8097457725405104
  0.1164219784502315 -0.0079358812446601  0.6158303969276400
  0.1214789929890093  0.6106858551160680 -0.0145598339067615
  0.8063523002238027  0.0223535567939444  0.6434786686894707
  0.8353925421474465  0.6051898208591382 -0.0219620307612215
 -0.0329017870711003  0.8136106407097474  0.1153174003610545
  0.4764579456809767  0.3428931045844118  0.3976852092934486
  0.4758524951160724  0.3385073700625300  0.8994368713468960
  0.4766563635981336  0.8377237120152565  0.3983853656824917
 -0.0247997336537787  0.3383831117469602  0.4065879249803918
 
  0.00000000E+00  0.00000000E+00  0.00000000E+00
  0.00000000E+00  0.00000000E+00  0.00000000E+00
  0.00000000E+00  0.00000000E+00  0.00000000E+00
  0.00000000E+00  0.00000000E+00  0.00000000E+00
  0.00000000E+00  0.00000000E+00  0.00000000E+00
  0.00000000E+00  0.00000000E+00  0.00000000E+00
  0.00000000E+00  0.00000000E+00  0.00000000E+00
  0.00000000E+00  0.00000000E+00  0.00000000E+00
  0.00000000E+00  0.00000000E+00  0.00000000E+00
  0.00000000E+00  0.00000000E+00  0.00000000E+00
  0.00000000E+00  0.00000000E+00  0.00000000E+00
  0.00000000E+00  0.00000000E+00  0.00000000E+00
