MA-Pb-I                                 
   1.00000000000000     
     5.8892445321787328   -0.0048008041779134    0.0656571269169357
    -0.0053334077729528    5.8544884580747532    0.0012821621476484
     0.0639774282558244    0.0006908469467942    6.0230320529523143
   C    N    H    Pb   Br
     1     1     6     1     3
Direct
  0.1274245068702799  0.0956096495229147  0.9078335415215415
  0.5232598222410473  0.5653799463640358  0.8674653492180884
  0.2042091642865739 -0.0496952584917108  0.9955087486470384
  0.0379381373095826  0.0765426261552394  0.7513093479426821
  0.0753590571034058  0.0766935188113835  0.4256819557455181
  0.9381399664300774  0.0820509761260207  0.4271751382118320
  0.6742053535939977  0.4912310490489387  0.9176615583217719
  0.5120045701293880  0.7251888137989856 -0.0614077968606003
  0.5153935176207515  0.5800075090813877  0.4653793395425444
  0.1969714849628708  0.3678045618259285  0.0059737489056557
  0.5091827158285409  0.0790973541921329  0.4497921728670657
  0.0088017148813402  0.5820298217542557  0.4574201581082492
 
  0.00000000E+00  0.00000000E+00  0.00000000E+00
  0.00000000E+00  0.00000000E+00  0.00000000E+00
  0.00000000E+00  0.00000000E+00  0.00000000E+00
  0.00000000E+00  0.00000000E+00  0.00000000E+00
  0.00000000E+00  0.00000000E+00  0.00000000E+00
  0.00000000E+00  0.00000000E+00  0.00000000E+00
  0.00000000E+00  0.00000000E+00  0.00000000E+00
  0.00000000E+00  0.00000000E+00  0.00000000E+00
  0.00000000E+00  0.00000000E+00  0.00000000E+00
  0.00000000E+00  0.00000000E+00  0.00000000E+00
  0.00000000E+00  0.00000000E+00  0.00000000E+00
  0.00000000E+00  0.00000000E+00  0.00000000E+00
