MA-Pb-I                                 
   1.00000000000000     
     5.8892445321787328   -0.0048008041779134    0.0656571269169357
    -0.0053334077729528    5.8544884580747532    0.0012821621476484
     0.0639774282558244    0.0006908469467942    6.0230320529523143
   C    N    H    Pb   Br
     1     1     6     1     3
Direct
  0.6258163791115672  0.3819524463338926  0.8790425719426586
 -0.0556780750061043  0.2681646482486211  0.5044085617958913
  0.7220874332460731  0.5105130422745014  0.7789695592633683
  0.6025597890641095  0.2141149090180222  0.8038934383514096
  0.0538914953224709  0.9450186848500178  0.3473431798435887
  0.7240026929349780  0.3612570520869817  0.0366259044898860
  0.0603890072509795  0.3564200623480643  0.6011494505764698
 -0.1016724521016174  0.1158879965805188  0.5867376203716208
  0.5790266407482818  0.4401005427315732  0.4187694179894875
  0.3312116470801353  0.5139563190904513 -0.0611348262491099
  0.5235584137333874 -0.0389902228265477  0.4316144208621895
  0.0459395093950439  0.6886480138954776  0.3250896491736368
 
  0.00000000E+00  0.00000000E+00  0.00000000E+00
  0.00000000E+00  0.00000000E+00  0.00000000E+00
  0.00000000E+00  0.00000000E+00  0.00000000E+00
  0.00000000E+00  0.00000000E+00  0.00000000E+00
  0.00000000E+00  0.00000000E+00  0.00000000E+00
  0.00000000E+00  0.00000000E+00  0.00000000E+00
  0.00000000E+00  0.00000000E+00  0.00000000E+00
  0.00000000E+00  0.00000000E+00  0.00000000E+00
  0.00000000E+00  0.00000000E+00  0.00000000E+00
  0.00000000E+00  0.00000000E+00  0.00000000E+00
  0.00000000E+00  0.00000000E+00  0.00000000E+00
  0.00000000E+00  0.00000000E+00  0.00000000E+00
