MA-Pb-I                                 
   1.00000000000000     
     5.8857348584972646   -0.0000116429338373    0.0677019167604032
    -0.0000113721705701    5.8535748976198549   -0.0000048572736550
     0.0678468051824150   -0.0000044748208102    6.0066012361495211
   C    N    H    Pb   Br
     1     1     6     1     3
Direct
  0.5446944226739494  0.1352542989632404  0.3441489388855475
  0.0739051631505025  0.9103165123062618  0.1855669341465439
  0.7282794487988027  0.1064456504194095  0.3237731529943818
  0.4471706105881024  0.0049195667092975  0.2478797554442817
  0.0554891817082730  0.0754531630011841  0.1369185322729166
  0.4778554044837942  0.7968559778435008  0.9202331757463169
 -0.0566580292143722  0.8179852963866647  0.1208277283324503
  0.0523766807655902  0.9008529860421326  0.3561477676313369
  0.4962195408760280  0.5131775243958009  0.5088210215263623
  0.5135841892571668  0.5587537180777650  0.0359246197333103
  0.4645802378666030  0.0375590734863379  0.6652314625644018
  0.9980907340413537  0.4927325235238966  0.5100737954782721
 
  0.00000000E+00  0.00000000E+00  0.00000000E+00
  0.00000000E+00  0.00000000E+00  0.00000000E+00
  0.00000000E+00  0.00000000E+00  0.00000000E+00
  0.00000000E+00  0.00000000E+00  0.00000000E+00
  0.00000000E+00  0.00000000E+00  0.00000000E+00
  0.00000000E+00  0.00000000E+00  0.00000000E+00
  0.00000000E+00  0.00000000E+00  0.00000000E+00
  0.00000000E+00  0.00000000E+00  0.00000000E+00
  0.00000000E+00  0.00000000E+00  0.00000000E+00
  0.00000000E+00  0.00000000E+00  0.00000000E+00
  0.00000000E+00  0.00000000E+00  0.00000000E+00
  0.00000000E+00  0.00000000E+00  0.00000000E+00
