MA-Pb-I                                 
   1.0000000000000000     
     5.8857348584972646   -0.0000116429338373    0.0677019167604032
    -0.0000113721705701    5.8535748976198549   -0.0000048572736550
     0.0678468051824150   -0.0000044748208102    6.0066012361495211
   C    N    H    Pb   Br
     1     1     6     1     3
Direct
  0.6045696082670655  0.1039587179310291  0.2079707206468182 
  0.1042328817656668  0.8911449442674017  0.4683762951173678 
  0.7186813405911672  0.0940653886522489  0.0649174672775659 
  0.5186667069627384  0.1444872660070388  0.9421937215288352 
  0.0593142227480243  0.2027369652558345  0.3694555809069223 
  0.4740292761476121  0.7284782901118486  0.9035086205236020 
  0.0296904796808801  0.7883449157232592  0.3426334927858505 
  0.9970222261570907  0.8871975147666833  0.6045837214940717 
  0.4722153099898231  0.5100664093007498  0.5107920629522075 
  0.4343825501137815  0.4999407920523851  0.9818407606070920
  0.4217797225331665  0.9999416700962840  0.5296464633737443
  0.9610032600387797  0.4999434169907246  0.4296279775420402

  0.00000000E+00  0.00000000E+00  0.00000000E+00
  0.00000000E+00  0.00000000E+00  0.00000000E+00
  0.00000000E+00  0.00000000E+00  0.00000000E+00
  0.00000000E+00  0.00000000E+00  0.00000000E+00
  0.00000000E+00  0.00000000E+00  0.00000000E+00
  0.00000000E+00  0.00000000E+00  0.00000000E+00
  0.00000000E+00  0.00000000E+00  0.00000000E+00
  0.00000000E+00  0.00000000E+00  0.00000000E+00
  0.00000000E+00  0.00000000E+00  0.00000000E+00
  0.00000000E+00  0.00000000E+00  0.00000000E+00
  0.00000000E+00  0.00000000E+00  0.00000000E+00
  0.00000000E+00  0.00000000E+00  0.00000000E+00
