MA-Pb-I                                 
   1.00000000000000     
     5.6267413476480952    0.0000416704727542    0.0620815770375229
    -0.0000317550626923    5.5940171136319288    0.0000254647194750
     0.0578866146782483   -0.0000342937909938    5.7648243532177101
   C    N    H    Pb   Cl
     1     1     6     1     3
Direct
  0.3509256769184554  0.4496188308514519  0.5232070123594733
  0.5864494320922339  0.5297581707904319  0.4291331609913686
  0.3439793035744415  0.4779279637282555  0.7130364622577995
  0.3263095898714194  0.2583094368670750  0.4834968284229850
  0.2098374339756642  0.5576225726852181  0.4429123022257286
  0.7236507385585816  0.4245089114443450  0.4968509079421763
  0.6281377755097786  0.7089652535324930  0.4653838871454644
  0.6065185832809872  0.5118210541482481  0.2483454513861532
  0.9117436497508163  0.0094141675082077  0.9628630404608114
  0.9035037253781402  0.0180187964609290  0.4679087888471710
  0.9122134302674285  0.5091304720234479 -0.0358382900211022
 -0.5862190110358434  0.0018206591235833 -0.0371093263970058
 
  0.00000000E+00  0.00000000E+00  0.00000000E+00
  0.00000000E+00  0.00000000E+00  0.00000000E+00
  0.00000000E+00  0.00000000E+00  0.00000000E+00
  0.00000000E+00  0.00000000E+00  0.00000000E+00
  0.00000000E+00  0.00000000E+00  0.00000000E+00
  0.00000000E+00  0.00000000E+00  0.00000000E+00
  0.00000000E+00  0.00000000E+00  0.00000000E+00
  0.00000000E+00  0.00000000E+00  0.00000000E+00
  0.00000000E+00  0.00000000E+00  0.00000000E+00
  0.00000000E+00  0.00000000E+00  0.00000000E+00
  0.00000000E+00  0.00000000E+00  0.00000000E+00
  0.00000000E+00  0.00000000E+00  0.00000000E+00
