MA-Pb-I                                 
   1.0000000000000000     
     5.6267413476480952    0.0000416704727542    0.0620815770375229
    -0.0000317550626923    5.5940171136319288    0.0000254647194750
     0.0578866146782483   -0.0000342937909938    5.7648243532177101
   C    N    H    Pb   Cl
     1     1     6     1     3
Direct
  0.4031176728483479  0.4245625667567549  0.5358433492653771 
  0.6044462764232735  0.5401251401951315  0.4194848055255464 
  0.4222698123787595  0.4537778978180377  0.7235320426758790 
  0.4066385767379150  0.2321367926863408  0.4973577432663138 
  0.2356526988183487  0.5048491189619372  0.4723565051781934 
  0.7677749502102109  0.4681534976318947  0.4748227663952624 
  0.6072196357761407  0.7242328325812466  0.4513489031717547 
  0.5984686017181369  0.5199374253103367  0.2401420590555612 
  0.6083660543132476  0.0890628591223823  0.9237641150646456 
  0.9135858188955126  0.0000223702692494  0.4744099460480626
  0.9004629834686284  0.5000248740275239  0.0232973215355017
  0.4490472465535831  0.0000309138028598  0.9238306684389244

  0.00000000E+00  0.00000000E+00  0.00000000E+00
  0.00000000E+00  0.00000000E+00  0.00000000E+00
  0.00000000E+00  0.00000000E+00  0.00000000E+00
  0.00000000E+00  0.00000000E+00  0.00000000E+00
  0.00000000E+00  0.00000000E+00  0.00000000E+00
  0.00000000E+00  0.00000000E+00  0.00000000E+00
  0.00000000E+00  0.00000000E+00  0.00000000E+00
  0.00000000E+00  0.00000000E+00  0.00000000E+00
  0.00000000E+00  0.00000000E+00  0.00000000E+00
  0.00000000E+00  0.00000000E+00  0.00000000E+00
  0.00000000E+00  0.00000000E+00  0.00000000E+00
  0.00000000E+00  0.00000000E+00  0.00000000E+00
