MA-Pb-I                                 
   1.00000000000000     
     5.8892445321787328   -0.0048008041779134    0.0656571269169357
    -0.0053334077729528    5.8544884580747532    0.0012821621476484
     0.0639774282558244    0.0006908469467942    6.0230320529523143
   C    N    H    Pb   Br
     1     1     6     1     3
Direct
  0.2522370790807927  0.0363922261113147  0.4618289712915236
  0.6280543823445804  0.7721173907827044  0.9157318994013204
  0.1673073883066014  0.1759922067320935  0.5530934012982710
  0.1892524778529609  0.0595935954465985  0.2902863316304871
  0.4526105630625489  0.2764074877316788  0.9190208640366415
  0.7285336493183241  0.6572208675751364  0.0050815276563595
  0.5039808932930913  0.8269031006833364  0.0285438398080180
  0.7314808796435021  0.9138014479802298  0.8849677028231252
  0.4354563812633709  0.6703188915908760  0.4901381978203448
  0.2456779493593697  0.4007739772257091 -0.0319549313325088
  0.5932754083654683  0.1708868850138004  0.4274472049667810
  0.9485288715329552  0.6105470673501541  0.4560872878698931
 
  0.00000000E+00  0.00000000E+00  0.00000000E+00
  0.00000000E+00  0.00000000E+00  0.00000000E+00
  0.00000000E+00  0.00000000E+00  0.00000000E+00
  0.00000000E+00  0.00000000E+00  0.00000000E+00
  0.00000000E+00  0.00000000E+00  0.00000000E+00
  0.00000000E+00  0.00000000E+00  0.00000000E+00
  0.00000000E+00  0.00000000E+00  0.00000000E+00
  0.00000000E+00  0.00000000E+00  0.00000000E+00
  0.00000000E+00  0.00000000E+00  0.00000000E+00
  0.00000000E+00  0.00000000E+00  0.00000000E+00
  0.00000000E+00  0.00000000E+00  0.00000000E+00
  0.00000000E+00  0.00000000E+00  0.00000000E+00
