MA-Pb-I                                 
   1.00000000000000     
     5.8892445321787328   -0.0048008041779134    0.0656571269169357
    -0.0053334077729528    5.8544884580747532    0.0012821621476484
     0.0639774282558244    0.0006908469467942    6.0230320529523143
   C    N    H    Pb   Br
     1     1     6     1     3
Direct
  0.2839287485849979  0.3320592274127730  0.5280284008810814 
  0.5171321456147657  0.9103865933967472  0.8280926172530982 
  0.1856392388602428  0.2853032886372729  0.3811280634118533 
  0.0786164201552517  0.0194078982608895  0.2704789322791769 
  0.6011890996637100  0.2168893037401857  0.8628456454591117 
  0.8751636103551256  0.5694402153019923  0.2901284804574841 
  0.4116924034649665  0.7727373760363079  0.8705088245246254 
  0.6145843337013884  0.9417470720536633  0.9674840225509629 
  0.4973370222402377  0.5276401602412910  0.4582651025326606 
  0.4352272726238539  0.4972012503325617  0.9832769846011953
  0.4159970891092727  0.9985715009710078  0.5336351900357424
  0.9598885390497535  0.4995712578389358  0.4264000332832606
 
  0.00000000E+00  0.00000000E+00  0.00000000E+00
  0.00000000E+00  0.00000000E+00  0.00000000E+00
  0.00000000E+00  0.00000000E+00  0.00000000E+00
  0.00000000E+00  0.00000000E+00  0.00000000E+00
  0.00000000E+00  0.00000000E+00  0.00000000E+00
  0.00000000E+00  0.00000000E+00  0.00000000E+00
  0.00000000E+00  0.00000000E+00  0.00000000E+00
  0.00000000E+00  0.00000000E+00  0.00000000E+00
  0.00000000E+00  0.00000000E+00  0.00000000E+00
  0.00000000E+00  0.00000000E+00  0.00000000E+00
  0.00000000E+00  0.00000000E+00  0.00000000E+00
  0.00000000E+00  0.00000000E+00  0.00000000E+00
