MA-Pb-I                                 
   1.00000000000000     
     6.2884187138843197    0.0009579558247489    0.0690993966769832
     0.0005978161223733    6.2287690412624563   -0.0003732067435118
     0.0697053521696059    0.0000445224912706    6.3737103126460282
   C    N    H    Pb   I 
     1     1     6     1     3
Direct
  0.5801886921290221  0.4245093615526436  0.6974788735831535
  0.6664903770942786  0.5459420144320454  0.5141654638751687
  0.5738195636212822  0.2526527155571278  0.6579717944390295
  0.4175950924411096  0.4834280102254022  0.7337213602779946
  0.6825583726785396  0.4503758417011865  0.8327860581742125
  0.5565071513708915  0.5385460755331218  0.3919692885254677
  0.8116388584590799  0.4882596084702686  0.4576051160246579
  0.6869956122380382  0.7081529198466673  0.5457080049485248
  0.2276714085599281 -0.0341576429736045  0.1940997706960088
  0.7277799650769460 -0.0160570974570280  0.1908031893036729
  0.2166646356678651  0.4672050283866642  0.2021937453259774
  0.2279821679928973  0.9441323215036453  0.6966288648489742
 
  0.00000000E+00  0.00000000E+00  0.00000000E+00
  0.00000000E+00  0.00000000E+00  0.00000000E+00
  0.00000000E+00  0.00000000E+00  0.00000000E+00
  0.00000000E+00  0.00000000E+00  0.00000000E+00
  0.00000000E+00  0.00000000E+00  0.00000000E+00
  0.00000000E+00  0.00000000E+00  0.00000000E+00
  0.00000000E+00  0.00000000E+00  0.00000000E+00
  0.00000000E+00  0.00000000E+00  0.00000000E+00
  0.00000000E+00  0.00000000E+00  0.00000000E+00
  0.00000000E+00  0.00000000E+00  0.00000000E+00
  0.00000000E+00  0.00000000E+00  0.00000000E+00
  0.00000000E+00  0.00000000E+00  0.00000000E+00
