MA-Pb-I                                 
   1.00000000000000     
     5.6267413476480952    0.0000416704727542    0.0620815770375229
    -0.0000317550626923    5.5940171136319288    0.0000254647194750
     0.0578866146782483   -0.0000342937909938    5.7648243532177101
   C    N    H    Pb   Cl
     1     1     6     1     3
Direct
  0.5531039841575541  0.5057224409050548  0.5483253045848273
  0.4732751703599527  0.4404329856992079  0.3138104911597591
  0.7485752420986933  0.5062490722193941  0.5502489655581754
  0.4827965856349385  0.3742668060542986  0.6738374511379225
  0.4855834651371466  0.6848734861320934  0.5938303120716965
  0.5160016214797579  0.2645096319331706  0.2637369887799795
  0.5500975638451314  0.5540815292994730  0.1896232896120542
  0.2895847759156399  0.4551157269824350  0.2908988877028959
  0.0183707039325294  0.9762842920806857  0.9925204264863889
  0.0237507203973394 -0.0208527721407612  0.4870549144766033
  0.0091721738058975  0.4777083737071244 -0.0074472965381835
  0.5202260611862262 -0.0253310800297503  0.9975986642289376
 
  0.00000000E+00  0.00000000E+00  0.00000000E+00
  0.00000000E+00  0.00000000E+00  0.00000000E+00
  0.00000000E+00  0.00000000E+00  0.00000000E+00
  0.00000000E+00  0.00000000E+00  0.00000000E+00
  0.00000000E+00  0.00000000E+00  0.00000000E+00
  0.00000000E+00  0.00000000E+00  0.00000000E+00
  0.00000000E+00  0.00000000E+00  0.00000000E+00
  0.00000000E+00  0.00000000E+00  0.00000000E+00
  0.00000000E+00  0.00000000E+00  0.00000000E+00
  0.00000000E+00  0.00000000E+00  0.00000000E+00
  0.00000000E+00  0.00000000E+00  0.00000000E+00
  0.00000000E+00  0.00000000E+00  0.00000000E+00
