MA-Pb-I                                 
   1.0000000000000000     
     6.2884187138843197    0.0009579558247489    0.0690993966769832
     0.0005978161223733    6.2287690412624563   -0.0003732067435118
     0.0697053521696059    0.0000445224912706    6.3737103126460282
   C    N    H    Pb   I 
     1     1     6     1     3
Direct
  0.5211621223119206  0.5629481140943576  0.4482619558276194 
  0.5787768254734117  0.3370480262434561  0.4474761360722048 
  0.3488271957316834  0.5721376467976119  0.4393254879714341 
  0.5938885804905065  0.6419091786053591  0.3083442124839485 
  0.5785788429123520  0.6369349645325570  0.5976491369023704 
  0.5276946917835607  0.2597871765937432  0.3075133793297167 
  0.5133702345903046  0.2551782311144052  0.5786350766644124 
  0.7406614692867133  0.3158362124526325  0.4556491618257074 
  0.9814835852246868  0.9501506793791390  0.9620356153178320 
  0.9094873486598019  0.9999820990246278  0.4751454839169895
  0.8992708791277906  0.4999580210910821  0.0236644354684188
  0.4323428768805755  0.9999948727175436  0.9224794036872126

  0.00000000E+00  0.00000000E+00  0.00000000E+00
  0.00000000E+00  0.00000000E+00  0.00000000E+00
  0.00000000E+00  0.00000000E+00  0.00000000E+00
  0.00000000E+00  0.00000000E+00  0.00000000E+00
  0.00000000E+00  0.00000000E+00  0.00000000E+00
  0.00000000E+00  0.00000000E+00  0.00000000E+00
  0.00000000E+00  0.00000000E+00  0.00000000E+00
  0.00000000E+00  0.00000000E+00  0.00000000E+00
  0.00000000E+00  0.00000000E+00  0.00000000E+00
  0.00000000E+00  0.00000000E+00  0.00000000E+00
  0.00000000E+00  0.00000000E+00  0.00000000E+00
  0.00000000E+00  0.00000000E+00  0.00000000E+00
