MA-Pb-I                                 
   1.00000000000000     
     5.6267413476480952    0.0000416704727542    0.0620815770375229
    -0.0000317550626923    5.5940171136319288    0.0000254647194750
     0.0578866146782483   -0.0000342937909938    5.7648243532177101
   C    N    H    Pb   Cl
     1     1     6     1     3
Direct
  0.8315114769961945  0.4372697680748960  0.8216423473373589
  0.4119101052045486  0.3751084003839110  0.4283584031084093
  0.2773976911461802  0.8463077486452104  0.0000952336411812
  0.8988453434277921  0.5113967260799969  0.6535456216254087
  0.6504011575442297  0.4851252243799558  0.8856778016278826
  0.4291196142275031  0.4685653930085835  0.2752774658079611
  0.2597481478824910  0.2786086411181384  0.4086988182432544
  0.5440465403002197  0.2488167864122278  0.4138811456492635
 -0.1844026288604350  0.9844520649249309 -0.1877017992407778
  0.8136954106461172 -0.0373060745293304  0.3207054153984292
  0.0538670469815841  0.4692173620637575  0.0385007416526170
  0.3191793678081156 -0.0183388370019473  0.8150428842238108
 
  0.00000000E+00  0.00000000E+00  0.00000000E+00
  0.00000000E+00  0.00000000E+00  0.00000000E+00
  0.00000000E+00  0.00000000E+00  0.00000000E+00
  0.00000000E+00  0.00000000E+00  0.00000000E+00
  0.00000000E+00  0.00000000E+00  0.00000000E+00
  0.00000000E+00  0.00000000E+00  0.00000000E+00
  0.00000000E+00  0.00000000E+00  0.00000000E+00
  0.00000000E+00  0.00000000E+00  0.00000000E+00
  0.00000000E+00  0.00000000E+00  0.00000000E+00
  0.00000000E+00  0.00000000E+00  0.00000000E+00
  0.00000000E+00  0.00000000E+00  0.00000000E+00
  0.00000000E+00  0.00000000E+00  0.00000000E+00
