MA-Pb-I                                 
   1.00000000000000     
     5.8892445321787328   -0.0048008041779134    0.0656571269169357
    -0.0053334077729528    5.8544884580747532    0.0012821621476484
     0.0639774282558244    0.0006908469467942    6.0230320529523143
   C    N    H    Pb   Br
     1     1     6     1     3
Direct
  0.1816450254417850  0.8451413781819203  0.1657105989378933
  0.5592285151674367  0.3771439351941012  0.1998391608102075
  0.2593629826259952  0.9898358556578732  0.0771217534516428
  0.0922696284178664  0.8609952991372616  0.3255499035533971
  0.1069789135253947 -0.1179002683874530  0.6457068038807828
  0.9714458649367420  0.8639184791963344  0.6405189376755849
  0.7076235759043307  0.4510833519591780  0.1395694956569022
  0.5582171150677832  0.2123147163942539  0.1407472455895312
  0.5515941593964812  0.3733331769672487  0.6034908647226231
  0.2381565965821901  0.5741747307560006  0.0594145342225958
  0.5395019334390190 -0.1245945831323964  0.6170110416643727
  0.0455904239028673  0.3708436033047999  0.6123386148049507
 
  0.00000000E+00  0.00000000E+00  0.00000000E+00
  0.00000000E+00  0.00000000E+00  0.00000000E+00
  0.00000000E+00  0.00000000E+00  0.00000000E+00
  0.00000000E+00  0.00000000E+00  0.00000000E+00
  0.00000000E+00  0.00000000E+00  0.00000000E+00
  0.00000000E+00  0.00000000E+00  0.00000000E+00
  0.00000000E+00  0.00000000E+00  0.00000000E+00
  0.00000000E+00  0.00000000E+00  0.00000000E+00
  0.00000000E+00  0.00000000E+00  0.00000000E+00
  0.00000000E+00  0.00000000E+00  0.00000000E+00
  0.00000000E+00  0.00000000E+00  0.00000000E+00
  0.00000000E+00  0.00000000E+00  0.00000000E+00
