MA-Pb-I                                 
   1.00000000000000     
     6.2884187138843197    0.0009579558247489    0.0690993966769832
     0.0005978161223733    6.2287690412624563   -0.0003732067435118
     0.0697053521696059    0.0000445224912706    6.3737103126460282
   C    N    H    Pb   I 
     1     1     6     1     3
Direct
  0.6070612632614165  0.5035690571254207  0.3894555882244620
  0.4293006796055578  0.3587869842595297  0.4380162135878434
  0.5573816292624064  0.6245702994689778  0.2812994248307600
  0.7412425495930127  0.4076665350141886  0.3255675939304071
  0.6397622191207797  0.5706703822700795  0.5383175122720736
  0.4013671266647805  0.2608680864100973  0.3041481790015774
  0.2873455547465275  0.4521640562395724  0.4527062929498278
  0.4477655299050348  0.2654498410567664  0.5699888057678675
  0.1760494117581709  0.7475403684996531  0.9313301770984571
  0.1742088920675190  0.8095241270294470  0.4219944087463045
  0.6921353459641209  0.7744281322675596 -0.1111596679597768
  0.2275246683397725  0.2267818261236448 -0.0660578469233751
 
  0.00000000E+00  0.00000000E+00  0.00000000E+00
  0.00000000E+00  0.00000000E+00  0.00000000E+00
  0.00000000E+00  0.00000000E+00  0.00000000E+00
  0.00000000E+00  0.00000000E+00  0.00000000E+00
  0.00000000E+00  0.00000000E+00  0.00000000E+00
  0.00000000E+00  0.00000000E+00  0.00000000E+00
  0.00000000E+00  0.00000000E+00  0.00000000E+00
  0.00000000E+00  0.00000000E+00  0.00000000E+00
  0.00000000E+00  0.00000000E+00  0.00000000E+00
  0.00000000E+00  0.00000000E+00  0.00000000E+00
  0.00000000E+00  0.00000000E+00  0.00000000E+00
  0.00000000E+00  0.00000000E+00  0.00000000E+00
