MA-Pb-I                                 
   1.00000000000000     
     5.8892445321787328   -0.0048008041779134    0.0656571269169357
    -0.0053334077729528    5.8544884580747532    0.0012821621476484
     0.0639774282558244    0.0006908469467942    6.0230320529523143
   C    N    H    Pb   Br
     1     1     6     1     3
Direct
 -0.1420481528325127  0.4665978960680403  0.5513674618382131
  0.7159446370927754  0.0024324341237281 -0.0423227896493878
  0.9440667913211809  0.2974377047143808  0.5638076537183296
  0.8244666272407172 -0.0024758421992007  0.8245456180314591
  0.6505138738612759  0.1702795809878689 -0.0274296197277953
 -0.0609031154801073  0.5912258543843056  0.6633308186723057
  0.7913672181456172  0.9519857093497677  0.1073282406321092
  0.5846040738965134  0.8901636595530101  0.9334079872512138
  0.4329179139713972  0.4571198841869996  0.5166858481109909
  0.4134307164293654  0.4699449785244607  0.9842978216581280
  0.4307904211482265 -0.0484665609886625  0.5072292947787220
 -0.0755479789661292  0.5808271899602476  0.2486529557937120
 
  0.00000000E+00  0.00000000E+00  0.00000000E+00
  0.00000000E+00  0.00000000E+00  0.00000000E+00
  0.00000000E+00  0.00000000E+00  0.00000000E+00
  0.00000000E+00  0.00000000E+00  0.00000000E+00
  0.00000000E+00  0.00000000E+00  0.00000000E+00
  0.00000000E+00  0.00000000E+00  0.00000000E+00
  0.00000000E+00  0.00000000E+00  0.00000000E+00
  0.00000000E+00  0.00000000E+00  0.00000000E+00
  0.00000000E+00  0.00000000E+00  0.00000000E+00
  0.00000000E+00  0.00000000E+00  0.00000000E+00
  0.00000000E+00  0.00000000E+00  0.00000000E+00
  0.00000000E+00  0.00000000E+00  0.00000000E+00
