MA-Pb-I                                 
   1.00000000000000     
     5.8857348584972646   -0.0000116429338373    0.0677019167604032
    -0.0000113721705701    5.8535748976198549   -0.0000048572736550
     0.0678468051824150   -0.0000044748208102    6.0066012361495211
   C    N    H    Pb   Br
     1     1     6     1     3
Direct
  0.6617293642435983  0.2033407131843670  0.8889627083524815
  0.0854281222769713  0.7589427745388886  0.8750597528423176
  0.7073237404735787  0.1766553282397958  0.7106579895639032
  0.8078636981615082  0.2466887525663286  0.9941613179990425
  0.0311213138582198  0.7440901391941865  0.7157862975883140
  0.5634181962965865  0.0614651903378042 -0.0332310679708468
 -0.0120368331715531  0.6559682811753337 -0.0232370376007261
  0.0572354200859325  0.9262098789666878  0.9275793120749124
  0.4360541251082500  0.4549525821182467  0.4017924842248581
  0.4471371859837670  0.4658524670865684  0.8978295738329087
  0.4400767499837155 -0.0497682646923976  0.3957319407334300
 -0.0596950455300008  0.4436040834990416  0.3970641877419872
 
  0.00000000E+00  0.00000000E+00  0.00000000E+00
  0.00000000E+00  0.00000000E+00  0.00000000E+00
  0.00000000E+00  0.00000000E+00  0.00000000E+00
  0.00000000E+00  0.00000000E+00  0.00000000E+00
  0.00000000E+00  0.00000000E+00  0.00000000E+00
  0.00000000E+00  0.00000000E+00  0.00000000E+00
  0.00000000E+00  0.00000000E+00  0.00000000E+00
  0.00000000E+00  0.00000000E+00  0.00000000E+00
  0.00000000E+00  0.00000000E+00  0.00000000E+00
  0.00000000E+00  0.00000000E+00  0.00000000E+00
  0.00000000E+00  0.00000000E+00  0.00000000E+00
  0.00000000E+00  0.00000000E+00  0.00000000E+00
