MA-Pb-I                                 
   1.00000000000000     
     6.2884187138843197    0.0009579558247489    0.0690993966769832
     0.0005978161223733    6.2287690412624563   -0.0003732067435118
     0.0697053521696059    0.0000445224912706    6.3737103126460282
   C    N    H    Pb   I 
     1     1     6     1     3
Direct
  0.3953532582554474  0.5282173651082237  0.5654858861518826
  0.5257049793374199  0.5254918248305395  0.3678625878241755
  0.4317359702861125  0.6749235756475438  0.6548049284689559
  0.4319256030940585  0.3846438861818989  0.6587891668211788
  0.2249440913118653  0.5284445077655143  0.5272020491550595
  0.6880415362684147  0.5247750765370199  0.3942060587453899
  0.4979192448372848  0.6614470008389040  0.2741202536236313
  0.4963582018673523  0.3884360334571145  0.2764322797317436
  0.0107010989553696  0.0222676559053551  0.0252886067476666
  0.0274841823187142  0.0212094369695102  0.5238132522644374
  0.0074238018822710  0.5223680322523384  0.0291702409839844
  0.5077253663485004  0.0220462716934543  0.0330775756458849
 
  0.00000000E+00  0.00000000E+00  0.00000000E+00
  0.00000000E+00  0.00000000E+00  0.00000000E+00
  0.00000000E+00  0.00000000E+00  0.00000000E+00
  0.00000000E+00  0.00000000E+00  0.00000000E+00
  0.00000000E+00  0.00000000E+00  0.00000000E+00
  0.00000000E+00  0.00000000E+00  0.00000000E+00
  0.00000000E+00  0.00000000E+00  0.00000000E+00
  0.00000000E+00  0.00000000E+00  0.00000000E+00
  0.00000000E+00  0.00000000E+00  0.00000000E+00
  0.00000000E+00  0.00000000E+00  0.00000000E+00
  0.00000000E+00  0.00000000E+00  0.00000000E+00
  0.00000000E+00  0.00000000E+00  0.00000000E+00
