MA-Pb-I                                 
   1.0000000000000000     
     6.2884187138843197    0.0009579558247489    0.0690993966769832
     0.0005978161223733    6.2287690412624563   -0.0003732067435118
     0.0697053521696059    0.0000445224912706    6.3737103126460282
   C    N    H    Pb   I 
     1     1     6     1     3
Direct
  0.4037183387288984  0.5374979364403534  0.5404968285919806 
  0.5681223210805842  0.5301973476850145  0.3753636907460238 
  0.4294817454553123  0.6815373377364824  0.6324344848410208 
  0.4189503159788549  0.3954666330162182  0.6439185770155862 
  0.2448756874528986  0.5414455677167317  0.4640724080534525 
  0.7225979755243597  0.5256573915411195  0.4408225138964523 
  0.5594202333105776  0.6624312492799329  0.2723014662400405 
  0.5536940118663956  0.3971949251939240  0.2814192560968933 
  0.1033556006967555  0.0329072857443952  0.2581343376099252 
  0.9094873486598019  0.9999820990246278  0.4751454839169895
  0.8992708791277906  0.4999580210910821  0.0236644354684188
  0.4323428768805755  0.9999948727175436  0.9224794036872126

  0.00000000E+00  0.00000000E+00  0.00000000E+00
  0.00000000E+00  0.00000000E+00  0.00000000E+00
  0.00000000E+00  0.00000000E+00  0.00000000E+00
  0.00000000E+00  0.00000000E+00  0.00000000E+00
  0.00000000E+00  0.00000000E+00  0.00000000E+00
  0.00000000E+00  0.00000000E+00  0.00000000E+00
  0.00000000E+00  0.00000000E+00  0.00000000E+00
  0.00000000E+00  0.00000000E+00  0.00000000E+00
  0.00000000E+00  0.00000000E+00  0.00000000E+00
  0.00000000E+00  0.00000000E+00  0.00000000E+00
  0.00000000E+00  0.00000000E+00  0.00000000E+00
  0.00000000E+00  0.00000000E+00  0.00000000E+00
