MA-Pb-I                                 
   1.00000000000000     
     5.6267413476480952    0.0000416704727542    0.0620815770375229
    -0.0000317550626923    5.5940171136319288    0.0000254647194750
     0.0578866146782483   -0.0000342937909938    5.7648243532177101
   C    N    H    Pb   Cl
     1     1     6     1     3
Direct
  0.4057098328358638  0.4644253053394712  0.4745253392574089
  0.6072828050259063  0.6118178685534971  0.5559043789613821
  0.4527946859280771  0.3822023662433952  0.3054893607980163
  0.2473915943420736  0.5804659204254823  0.4583293051750411
  0.3677635421499988  0.3217396473812070  0.6023531329421647
  0.6679109370835453  0.7393387357409378  0.4359027579504601
  0.7553574856967846  0.5090273141418910  0.5974755547413205
  0.5640165377702195  0.7114920047565343  0.7062985807727653
  0.0114493777740155  0.0129770196321815 -0.0118036316574494
  0.0041275693655166  0.0186970134456548  0.4862556029573059
  0.0100051332319553  0.5129567875827753 -0.0136871497615724
  0.5151012064918702  0.0028876905510613 -0.0137940840693130
 
  0.00000000E+00  0.00000000E+00  0.00000000E+00
  0.00000000E+00  0.00000000E+00  0.00000000E+00
  0.00000000E+00  0.00000000E+00  0.00000000E+00
  0.00000000E+00  0.00000000E+00  0.00000000E+00
  0.00000000E+00  0.00000000E+00  0.00000000E+00
  0.00000000E+00  0.00000000E+00  0.00000000E+00
  0.00000000E+00  0.00000000E+00  0.00000000E+00
  0.00000000E+00  0.00000000E+00  0.00000000E+00
  0.00000000E+00  0.00000000E+00  0.00000000E+00
  0.00000000E+00  0.00000000E+00  0.00000000E+00
  0.00000000E+00  0.00000000E+00  0.00000000E+00
  0.00000000E+00  0.00000000E+00  0.00000000E+00
