MA-Pb-I                                 
   1.0000000000000000     
     5.6267413476480952    0.0000416704727542    0.0620815770375229
    -0.0000317550626923    5.5940171136319288    0.0000254647194750
     0.0578866146782483   -0.0000342937909938    5.7648243532177101
   C    N    H    Pb   Cl
     1     1     6     1     3
Direct
  0.4308377256373224  0.5386544851630266  0.4574629351780426 
  0.6511806220367826  0.6516545094357574  0.5356116921677914 
  0.4739930343856992  0.4292328621782706  0.3070903532291770 
  0.3013768196120757  0.6765138145032328  0.4049663040013320 
  0.3589038579240836  0.4277197095526880  0.6025147245503637 
  0.7252931768889483  0.7596966526075377  0.4023724808236770 
  0.7793131564448239  0.5260765063512274  0.5878694514397073 
  0.6242277530183526  0.7588195401754618  0.6784272941753491 
  0.0006885128300165  0.5995814357272500  0.1853959764795972 
  0.9135858188955126  0.0000223702692494  0.4744099460480626
  0.9004629834686284  0.5000248740275239  0.0232973215355017
  0.4490472465535831  0.0000309138028598  0.9238306684389244

  0.00000000E+00  0.00000000E+00  0.00000000E+00
  0.00000000E+00  0.00000000E+00  0.00000000E+00
  0.00000000E+00  0.00000000E+00  0.00000000E+00
  0.00000000E+00  0.00000000E+00  0.00000000E+00
  0.00000000E+00  0.00000000E+00  0.00000000E+00
  0.00000000E+00  0.00000000E+00  0.00000000E+00
  0.00000000E+00  0.00000000E+00  0.00000000E+00
  0.00000000E+00  0.00000000E+00  0.00000000E+00
  0.00000000E+00  0.00000000E+00  0.00000000E+00
  0.00000000E+00  0.00000000E+00  0.00000000E+00
  0.00000000E+00  0.00000000E+00  0.00000000E+00
  0.00000000E+00  0.00000000E+00  0.00000000E+00
