MA-Pb-I                                 
   1.0000000000000000     
     5.6267413476480952    0.0000416704727542    0.0620815770375229
    -0.0000317550626923    5.5940171136319288    0.0000254647194750
     0.0578866146782483   -0.0000342937909938    5.7648243532177101
   C    N    H    Pb   Cl
     1     1     6     1     3
Direct
  0.3966945415360938  0.4444794131684894  0.6010652267096424 
  0.4828865600421330  0.4610062832170356  0.3566781889792486 
  0.2635924673827167  0.5795677914352366  0.6230277758577530 
  0.5452629359151047  0.4760670297485085  0.7253667626227158 
  0.3177948222800022  0.2672833692695379  0.6310222574684623 
  0.5601194932871736  0.6273805887752184  0.3209972781182867 
  0.3465240499479662  0.4313338970862476  0.2324064304064689 
  0.6102809532115536  0.3377200271119485  0.3223523272546902 
  0.4601319880288616  0.9570613110118471  0.8157450310822709 
  0.9135858188955126  0.0000223702692494  0.4744099460480626
  0.9004629834686284  0.5000248740275239  0.0232973215355017
  0.4490472465535831  0.0000309138028598  0.9238306684389244

  0.00000000E+00  0.00000000E+00  0.00000000E+00
  0.00000000E+00  0.00000000E+00  0.00000000E+00
  0.00000000E+00  0.00000000E+00  0.00000000E+00
  0.00000000E+00  0.00000000E+00  0.00000000E+00
  0.00000000E+00  0.00000000E+00  0.00000000E+00
  0.00000000E+00  0.00000000E+00  0.00000000E+00
  0.00000000E+00  0.00000000E+00  0.00000000E+00
  0.00000000E+00  0.00000000E+00  0.00000000E+00
  0.00000000E+00  0.00000000E+00  0.00000000E+00
  0.00000000E+00  0.00000000E+00  0.00000000E+00
  0.00000000E+00  0.00000000E+00  0.00000000E+00
  0.00000000E+00  0.00000000E+00  0.00000000E+00
