MA-Pb-I                                 
   1.0000000000000000     
     5.8857348584972646   -0.0000116429338373    0.0677019167604032
    -0.0000113721705701    5.8535748976198549   -0.0000048572736550
     0.0678468051824150   -0.0000044748208102    6.0066012361495211
   C    N    H    Pb   Br
     1     1     6     1     3
Direct
  0.2724410692337760  0.6951373214883156  0.2310038108327471 
  0.7555726328951571  0.7525705924192592  0.7416313040802279 
  0.2602686861513921  0.6298686642298116  0.4018119903427489 
  0.4169428857904541  0.6907477060381787  0.1687227839580405 
  0.9925064796691249  0.3207541437588216  0.0683396502158771 
  0.0882710245379745  0.2572017456583547  0.9483883532312208 
  0.6798170105691996  0.8769340051607819  0.8452194075126116 
  0.7744007921967646  0.8243643119502024  0.5849362750299270 
  0.5660245065447521  0.4425836821231640  0.5561060981347689 
  0.4343825501137815  0.4999407920523851  0.9818407606070920
  0.4217797225331665  0.9999416700962840  0.5296464633737443
  0.9610032600387797  0.4999434169907246  0.4296279775420402

  0.00000000E+00  0.00000000E+00  0.00000000E+00
  0.00000000E+00  0.00000000E+00  0.00000000E+00
  0.00000000E+00  0.00000000E+00  0.00000000E+00
  0.00000000E+00  0.00000000E+00  0.00000000E+00
  0.00000000E+00  0.00000000E+00  0.00000000E+00
  0.00000000E+00  0.00000000E+00  0.00000000E+00
  0.00000000E+00  0.00000000E+00  0.00000000E+00
  0.00000000E+00  0.00000000E+00  0.00000000E+00
  0.00000000E+00  0.00000000E+00  0.00000000E+00
  0.00000000E+00  0.00000000E+00  0.00000000E+00
  0.00000000E+00  0.00000000E+00  0.00000000E+00
  0.00000000E+00  0.00000000E+00  0.00000000E+00
