MA-Pb-I                                 
   1.00000000000000     
     5.8892445321787328   -0.0048008041779134    0.0656571269169357
    -0.0053334077729528    5.8544884580747532    0.0012821621476484
     0.0639774282558244    0.0006908469467942    6.0230320529523143
   C    N    H    Pb   Br
     1     1     6     1     3
Direct
  0.0911817328155320  0.6704414183268586  0.8014722941578430
  0.9455995427073031 -0.1206667882504932  0.8656914285999977
  0.0121542325101914  0.5318839561789657  0.9089259550099958
 -0.0599698939130614  0.0300111293475122  0.4425874539033008
  0.0774495242494133  0.0236751483202925  0.4460977509602115
  0.8608341462710806 -0.1442834544815901  0.0178000371496134
  0.0552691444323521  0.0169157711489070  0.8764896627724936
  0.8182155162332165 -0.0737039170562761  0.7552176117080535
  0.4970727016866004  0.5288930209520644  0.4968846177288122
  0.5423231168844777  0.5134804403352106  0.0171942910412747
  0.5039981889937946  0.0262735150214949  0.4827328021663464
 -0.0045022507615764  0.5378879290315592  0.4894682948417329
 
  0.00000000E+00  0.00000000E+00  0.00000000E+00
  0.00000000E+00  0.00000000E+00  0.00000000E+00
  0.00000000E+00  0.00000000E+00  0.00000000E+00
  0.00000000E+00  0.00000000E+00  0.00000000E+00
  0.00000000E+00  0.00000000E+00  0.00000000E+00
  0.00000000E+00  0.00000000E+00  0.00000000E+00
  0.00000000E+00  0.00000000E+00  0.00000000E+00
  0.00000000E+00  0.00000000E+00  0.00000000E+00
  0.00000000E+00  0.00000000E+00  0.00000000E+00
  0.00000000E+00  0.00000000E+00  0.00000000E+00
  0.00000000E+00  0.00000000E+00  0.00000000E+00
  0.00000000E+00  0.00000000E+00  0.00000000E+00
