MA-Pb-I                                 
   1.00000000000000     
     5.8892445321787328   -0.0048008041779134    0.0656571269169357
    -0.0053334077729528    5.8544884580747532    0.0012821621476484
     0.0639774282558244    0.0006908469467942    6.0230320529523143
   C    N    H    Pb   Br
     1     1     6     1     3
Direct
  0.5865808070656259  0.0388441017605906  0.5111415805390199
  0.0256338552682542  0.8120777392648092  0.1204024161831775
  0.7389818751488111 -0.0118101050455804  0.6038846353712446
 -0.0645383178951917  0.6631236746305147  0.1116248785638126
  0.1582196041935774  0.2029150460436011  0.6082266738782690
 -0.4336486720126942 -0.0532712538177097 -0.6466618560406356
 -0.0184317383504366  0.9018400140568451 -0.0202266597948694
  0.1938489056024191  0.7693417979889681  0.1009866728720053
  0.5874378892098662  0.4656538459930920  0.4961211927385052
  0.5725396137067521  0.4760916754550761  0.0013663755148849
  0.3253474858019318  0.9675967656126938  0.7045212663701629
  0.0812344821616467  0.4497572139460520  0.5061528886007081
 
  0.00000000E+00  0.00000000E+00  0.00000000E+00
  0.00000000E+00  0.00000000E+00  0.00000000E+00
  0.00000000E+00  0.00000000E+00  0.00000000E+00
  0.00000000E+00  0.00000000E+00  0.00000000E+00
  0.00000000E+00  0.00000000E+00  0.00000000E+00
  0.00000000E+00  0.00000000E+00  0.00000000E+00
  0.00000000E+00  0.00000000E+00  0.00000000E+00
  0.00000000E+00  0.00000000E+00  0.00000000E+00
  0.00000000E+00  0.00000000E+00  0.00000000E+00
  0.00000000E+00  0.00000000E+00  0.00000000E+00
  0.00000000E+00  0.00000000E+00  0.00000000E+00
  0.00000000E+00  0.00000000E+00  0.00000000E+00
