MA-Pb-I                                 
   1.0000000000000000     
     6.2884187138843197    0.0009579558247489    0.0690993966769832
     0.0005978161223733    6.2287690412624563   -0.0003732067435118
     0.0697053521696059    0.0000445224912706    6.3737103126460282
   C    N    H    Pb   I 
     1     1     6     1     3
Direct
  0.5637758044109863  0.5695239195489582  0.4882122775648861 
  0.4575355770822735  0.4472609226836285  0.6558896311901493 
  0.4422460990625852  0.6614073603908540  0.4066549424842865 
  0.6419249179887812  0.4582805479016793  0.3758797771838842 
  0.6827903136180645  0.6770757166353025  0.5613930212986650 
  0.3428012975905622  0.3418385757753097  0.5935167971378136 
  0.3811495914315054  0.5468904522955784  0.7673458612006578 
  0.5634027770959785  0.3557749211022645  0.7404226115749458 
  0.4050518138031234  0.7153122408894919  0.7508178796843630 
  0.9094873486598019  0.9999820990246278  0.4751454839169895
  0.8992708791277906  0.4999580210910821  0.0236644354684188
  0.4323428768805755  0.9999948727175436  0.9224794036872126

  0.00000000E+00  0.00000000E+00  0.00000000E+00
  0.00000000E+00  0.00000000E+00  0.00000000E+00
  0.00000000E+00  0.00000000E+00  0.00000000E+00
  0.00000000E+00  0.00000000E+00  0.00000000E+00
  0.00000000E+00  0.00000000E+00  0.00000000E+00
  0.00000000E+00  0.00000000E+00  0.00000000E+00
  0.00000000E+00  0.00000000E+00  0.00000000E+00
  0.00000000E+00  0.00000000E+00  0.00000000E+00
  0.00000000E+00  0.00000000E+00  0.00000000E+00
  0.00000000E+00  0.00000000E+00  0.00000000E+00
  0.00000000E+00  0.00000000E+00  0.00000000E+00
  0.00000000E+00  0.00000000E+00  0.00000000E+00
