MA-Pb-I                                 
   1.00000000000000     
     5.6267413476480952    0.0000416704727542    0.0620815770375229
    -0.0000317550626923    5.5940171136319288    0.0000254647194750
     0.0578866146782483   -0.0000342937909938    5.7648243532177101
   C    N    H    Pb   Cl
     1     1     6     1     3
Direct
  0.4793425880367495  0.5261960404069380  0.4032604086671507
  0.3988183152448362  0.4147245956140738  0.6235309183613456
  0.6749845059484051  0.5291005872113672  0.3936709544107821
  0.4129458691169835  0.7117928283684474  0.3958725107076358
  0.4091799035813392  0.4243318043890427  0.2554085125766077
  0.4737869475991388  0.5040370695625510  0.7641521716349571
  0.4445255545776827  0.2346060301069879  0.6402144778184877
  0.2145186960639495  0.4238546060371398  0.6541243435397688
 -0.0636617231846807  0.9319644627694500  0.9611454315870731
  0.9364804292205292 -0.0713709419103328  0.4633849675707470
  0.9363757202351318  0.4349087025399536 -0.0416040162261357
  0.4392524655720088 -0.0649470714624348  0.9540994747223467
 
  0.00000000E+00  0.00000000E+00  0.00000000E+00
  0.00000000E+00  0.00000000E+00  0.00000000E+00
  0.00000000E+00  0.00000000E+00  0.00000000E+00
  0.00000000E+00  0.00000000E+00  0.00000000E+00
  0.00000000E+00  0.00000000E+00  0.00000000E+00
  0.00000000E+00  0.00000000E+00  0.00000000E+00
  0.00000000E+00  0.00000000E+00  0.00000000E+00
  0.00000000E+00  0.00000000E+00  0.00000000E+00
  0.00000000E+00  0.00000000E+00  0.00000000E+00
  0.00000000E+00  0.00000000E+00  0.00000000E+00
  0.00000000E+00  0.00000000E+00  0.00000000E+00
  0.00000000E+00  0.00000000E+00  0.00000000E+00
