MA-Pb-I                                 
   1.00000000000000     
     6.2884187138843197    0.0009579558247489    0.0690993966769832
     0.0005978161223733    6.2287690412624563   -0.0003732067435118
     0.0697053521696059    0.0000445224912706    6.3737103126460282
   C    N    H    Pb   I 
     1     1     6     1     3
Direct
  0.3653809827878922  0.5064982757195742  0.5414157043693779
  0.2358695329589727  0.3109280775294042  0.4946994309135739
  0.2758757726849286  0.6498329536442160  0.4918767061660901
  0.5159926073771232  0.4955798402891724  0.4487314022399677
  0.3963358423998652  0.5121651306963606  0.7112890109897950
  0.1945111442801862  0.3032214438276818  0.3375010607579146
  0.0960846004545198  0.3013599948756743  0.5823789168377014
  0.3272168549849571  0.1726694554953099  0.5253705977462517
  0.7333978486855901  0.8940481716930697  0.0524124755895866
  0.6973668658582599  0.9343129055427645  0.5457022303851924
  0.2307119464939046  0.8752581166210316  0.0548760032116342
  0.7617008872768296  0.3906093890365316  0.0432339016832254
 
  0.00000000E+00  0.00000000E+00  0.00000000E+00
  0.00000000E+00  0.00000000E+00  0.00000000E+00
  0.00000000E+00  0.00000000E+00  0.00000000E+00
  0.00000000E+00  0.00000000E+00  0.00000000E+00
  0.00000000E+00  0.00000000E+00  0.00000000E+00
  0.00000000E+00  0.00000000E+00  0.00000000E+00
  0.00000000E+00  0.00000000E+00  0.00000000E+00
  0.00000000E+00  0.00000000E+00  0.00000000E+00
  0.00000000E+00  0.00000000E+00  0.00000000E+00
  0.00000000E+00  0.00000000E+00  0.00000000E+00
  0.00000000E+00  0.00000000E+00  0.00000000E+00
  0.00000000E+00  0.00000000E+00  0.00000000E+00
