MA-Pb-I                                 
   1.00000000000000     
     5.8892445321787328   -0.0048008041779134    0.0656571269169357
    -0.0053334077729528    5.8544884580747532    0.0012821621476484
     0.0639774282558244    0.0006908469467942    6.0230320529523143
   C    N    H    Pb   Br
     1     1     6     1     3
Direct
  0.8462532577229827  0.8983521767028124  0.9197309665990973 
  0.7664166044597509  0.3846616626833844  0.8207079395289106 
  0.7618796364011158  0.0384522623253144  0.0014604760487806 
  0.5601289289320575  0.1064139366624619  0.6448127168239391 
  0.3224151241667644  0.6749853687489216  0.1302069331208968 
  0.1071488635572417  0.9760489407182571  0.2953435070868331 
  0.8620185208480771  0.5330766716613671  0.7943026446658790 
  0.8572851765479044  0.2552009072451904  0.7507566145707147 
  0.4256390730560021  0.4515277042748802  0.4967346233656718 
  0.4352272726238539  0.4972012503325617  0.9832769846011953
  0.4159970891092727  0.9985715009710078  0.5336351900357424
  0.9598885390497535  0.4995712578389358  0.4264000332832606
 
  0.00000000E+00  0.00000000E+00  0.00000000E+00
  0.00000000E+00  0.00000000E+00  0.00000000E+00
  0.00000000E+00  0.00000000E+00  0.00000000E+00
  0.00000000E+00  0.00000000E+00  0.00000000E+00
  0.00000000E+00  0.00000000E+00  0.00000000E+00
  0.00000000E+00  0.00000000E+00  0.00000000E+00
  0.00000000E+00  0.00000000E+00  0.00000000E+00
  0.00000000E+00  0.00000000E+00  0.00000000E+00
  0.00000000E+00  0.00000000E+00  0.00000000E+00
  0.00000000E+00  0.00000000E+00  0.00000000E+00
  0.00000000E+00  0.00000000E+00  0.00000000E+00
  0.00000000E+00  0.00000000E+00  0.00000000E+00
