MA-Pb-I                                 
   1.00000000000000     
     5.8892445321787328   -0.0048008041779134    0.0656571269169357
    -0.0053334077729528    5.8544884580747532    0.0012821621476484
     0.0639774282558244    0.0006908469467942    6.0230320529523143
   C    N    H    Pb   Br
     1     1     6     1     3
Direct
  0.8029741389702673  0.0738730255487093  0.8117646824114108
 -0.0045281202613609  0.9725473766901033 -0.0524664388461556
  0.6468975190859758  0.0032083143863242  0.9012334670285121
  0.0898467902792485  0.4464660191799791  0.9897266028210813
  0.0875834725896096  0.4487187388853444  0.8528174916632902
 -0.0420559784533326  0.8281938792923250  0.0423897719598601
  0.1267692594644769  0.9343179349969538  0.8325801448326281
  0.0457388201674446  0.1051831946215477  0.0508717012771613
  0.5714657094748996  0.4479770003803251  0.4275875643057163
  0.6066648168111844  0.4434878677024146  0.9272148748871545
  0.5470488954425839  0.9461780035637797  0.4297932279248107
  0.0756169471881519  0.4491751885866875  0.4164340003559162
 
  0.00000000E+00  0.00000000E+00  0.00000000E+00
  0.00000000E+00  0.00000000E+00  0.00000000E+00
  0.00000000E+00  0.00000000E+00  0.00000000E+00
  0.00000000E+00  0.00000000E+00  0.00000000E+00
  0.00000000E+00  0.00000000E+00  0.00000000E+00
  0.00000000E+00  0.00000000E+00  0.00000000E+00
  0.00000000E+00  0.00000000E+00  0.00000000E+00
  0.00000000E+00  0.00000000E+00  0.00000000E+00
  0.00000000E+00  0.00000000E+00  0.00000000E+00
  0.00000000E+00  0.00000000E+00  0.00000000E+00
  0.00000000E+00  0.00000000E+00  0.00000000E+00
  0.00000000E+00  0.00000000E+00  0.00000000E+00
