MA-Pb-I                                 
   1.00000000000000     
     5.6267413476480952    0.0000416704727542    0.0620815770375229
    -0.0000317550626923    5.5940171136319288    0.0000254647194750
     0.0578866146782483   -0.0000342937909938    5.7648243532177101
   C    N    H    Pb   Cl
     1     1     6     1     3
Direct
  0.5021777093988731  0.5287898811096358  0.7072777827205788
  0.6026276004686139  0.3971671158358022  0.5017334124433424
  0.5309477096108282  0.7234107082516794  0.6809438558346927
  0.5951189523728436  0.4680474600968259  0.8632200254649900
  0.3090007716443739  0.4867705428905161  0.7249900284049717
  0.7583123916853048  0.4733386074773282  0.4347335306975204
  0.4740273463264003  0.3963098699227758  0.3704174218461213
  0.6402123104241947  0.2185070656218156  0.5382249887676835
  0.1205562431153663  0.9560535695094377  0.1915291325458475
  0.6187321786609549 -0.0509628502009842  0.1883751527237896
  0.1137668799863129  0.4538660116320937  0.1950705738784697
  0.1280427417419568 -0.0247536488511168  0.6876370438282061
 
  0.00000000E+00  0.00000000E+00  0.00000000E+00
  0.00000000E+00  0.00000000E+00  0.00000000E+00
  0.00000000E+00  0.00000000E+00  0.00000000E+00
  0.00000000E+00  0.00000000E+00  0.00000000E+00
  0.00000000E+00  0.00000000E+00  0.00000000E+00
  0.00000000E+00  0.00000000E+00  0.00000000E+00
  0.00000000E+00  0.00000000E+00  0.00000000E+00
  0.00000000E+00  0.00000000E+00  0.00000000E+00
  0.00000000E+00  0.00000000E+00  0.00000000E+00
  0.00000000E+00  0.00000000E+00  0.00000000E+00
  0.00000000E+00  0.00000000E+00  0.00000000E+00
  0.00000000E+00  0.00000000E+00  0.00000000E+00
