MA-Pb-I                                 
   1.0000000000000000     
     5.6267413476480952    0.0000416704727542    0.0620815770375229
    -0.0000317550626923    5.5940171136319288    0.0000254647194750
     0.0578866146782483   -0.0000342937909938    5.7648243532177101
   C    N    H    Pb   Cl
     1     1     6     1     3
Direct
  0.4515832415188609  0.5284003349558282  0.6752899819678964 
  0.5238166987414392  0.4031716445230479  0.4595880384241521 
  0.4073589494174021  0.7070366005696529  0.6244895661484757 
  0.6004383296259281  0.5300972816897533  0.8031981532328011 
  0.2944805622591576  0.4400785957758523  0.7530012805136113 
  0.6737147355803992  0.4815936529028831  0.3802216092429976 
  0.3864184557383286  0.3970678793309840  0.3330845937801979 
  0.5686631732183646  0.2316412768609679  0.4938403936022963 
  0.2239526404184198  0.8073789085872116  0.1399013962213037 
  0.9135858188955126  0.0000223702692494  0.4744099460480626
  0.9004629834686284  0.5000248740275239  0.0232973215355017
  0.4490472465535831  0.0000309138028598  0.9238306684389244

  0.00000000E+00  0.00000000E+00  0.00000000E+00
  0.00000000E+00  0.00000000E+00  0.00000000E+00
  0.00000000E+00  0.00000000E+00  0.00000000E+00
  0.00000000E+00  0.00000000E+00  0.00000000E+00
  0.00000000E+00  0.00000000E+00  0.00000000E+00
  0.00000000E+00  0.00000000E+00  0.00000000E+00
  0.00000000E+00  0.00000000E+00  0.00000000E+00
  0.00000000E+00  0.00000000E+00  0.00000000E+00
  0.00000000E+00  0.00000000E+00  0.00000000E+00
  0.00000000E+00  0.00000000E+00  0.00000000E+00
  0.00000000E+00  0.00000000E+00  0.00000000E+00
  0.00000000E+00  0.00000000E+00  0.00000000E+00
