MA-Pb-I                                 
   1.00000000000000     
     5.8892445321787328   -0.0048008041779134    0.0656571269169357
    -0.0053334077729528    5.8544884580747532    0.0012821621476484
     0.0639774282558244    0.0006908469467942    6.0230320529523143
   C    N    H    Pb   Br
     1     1     6     1     3
Direct
  0.6968496725744705  0.5694963325768170  0.7451487620618790
  0.6458881223580990  0.7417713084563096  0.8739288532839576
  0.8766194739004651  0.5579255829854008  0.6956500235491536
  0.6805473770929502  0.0977134854289393  0.5669761081877749
  0.3071675555431587 -0.0084290350489781  0.2342631879578138
  0.0681057763244501  0.5605080032042546  0.3138544033711240
  0.7578107355644563  0.8513979274381523  0.9439613262995862
  0.4817483743113511  0.7731778407586181  0.9264246485544898
  0.4287547435543473  0.2936679321873333  0.5879515352051906
  0.3808810922363058  0.2441696748059807  0.0596365610905381
  0.3307641326465258  0.7890306626835232  0.4086703303514382
  0.8849494599185552  0.3860224274230695  0.2982457562925046
 
  0.00000000E+00  0.00000000E+00  0.00000000E+00
  0.00000000E+00  0.00000000E+00  0.00000000E+00
  0.00000000E+00  0.00000000E+00  0.00000000E+00
  0.00000000E+00  0.00000000E+00  0.00000000E+00
  0.00000000E+00  0.00000000E+00  0.00000000E+00
  0.00000000E+00  0.00000000E+00  0.00000000E+00
  0.00000000E+00  0.00000000E+00  0.00000000E+00
  0.00000000E+00  0.00000000E+00  0.00000000E+00
  0.00000000E+00  0.00000000E+00  0.00000000E+00
  0.00000000E+00  0.00000000E+00  0.00000000E+00
  0.00000000E+00  0.00000000E+00  0.00000000E+00
  0.00000000E+00  0.00000000E+00  0.00000000E+00
