MA-Pb-I                                 
   1.00000000000000     
     5.8892445321787328   -0.0048008041779134    0.0656571269169357
    -0.0053334077729528    5.8544884580747532    0.0012821621476484
     0.0639774282558244    0.0006908469467942    6.0230320529523143
   C    N    H    Pb   Br
     1     1     6     1     3
Direct
  0.6716285716307415  0.4362894591364845  0.5968405981493743 
  0.5151801684752212  0.6466362205038080  0.7865785311494586 
  0.7652639876576617  0.5849946922463800  0.5463845064212058 
  0.8311910635814637  0.9210566013714321  0.7899106282749581 
  0.3435757209437110  0.0641339909341800  0.3208625010826254 
  0.1023049482495393  0.5640109477352988  0.4113206612809631 
  0.6017510541592199  0.7113913197243611  0.9286216224305313 
  0.4205327384716017  0.5136674452690839  0.8437759197407427 
  0.4775453620730959  0.4189274568358820  0.4871043197553859 
  0.4352272726238539  0.4972012503325617  0.9832769846011953
  0.4159970891092727  0.9985715009710078  0.5336351900357424
  0.9598885390497535  0.4995712578389358  0.4264000332832606
 
  0.00000000E+00  0.00000000E+00  0.00000000E+00
  0.00000000E+00  0.00000000E+00  0.00000000E+00
  0.00000000E+00  0.00000000E+00  0.00000000E+00
  0.00000000E+00  0.00000000E+00  0.00000000E+00
  0.00000000E+00  0.00000000E+00  0.00000000E+00
  0.00000000E+00  0.00000000E+00  0.00000000E+00
  0.00000000E+00  0.00000000E+00  0.00000000E+00
  0.00000000E+00  0.00000000E+00  0.00000000E+00
  0.00000000E+00  0.00000000E+00  0.00000000E+00
  0.00000000E+00  0.00000000E+00  0.00000000E+00
  0.00000000E+00  0.00000000E+00  0.00000000E+00
  0.00000000E+00  0.00000000E+00  0.00000000E+00
