MA-Pb-I                                 
   1.00000000000000     
     5.8892445321787328   -0.0048008041779134    0.0656571269169357
    -0.0053334077729528    5.8544884580747532    0.0012821621476484
     0.0639774282558244    0.0006908469467942    6.0230320529523143
   C    N    H    Pb   Br
     1     1     6     1     3
Direct
  0.8354747329556130  0.5616273931928436  0.9489994961777131 
  0.9449002454521847  0.1790318182485806  0.1364703793312214 
  0.9205492218086005  0.4015664652759016  0.9251356033256548 
  0.6319592559683194  0.0430555661715493  0.1042770232415905 
  0.4587894406437132  0.8594875659668987  0.7481411484759174 
  0.1091274251672143  0.3208274798453704  0.3029425779463262 
  0.9319420755969483  0.1317043351752853  0.9648423627260978 
  0.8532446878972730  0.3246655971509501  0.1538034017822834 
  0.5677582073257520  0.5132691875368326  0.5979044091333580 
  0.4352272726238539  0.4972012503325617  0.9832769846011953
  0.4159970891092727  0.9985715009710078  0.5336351900357424
  0.9598885390497535  0.4995712578389358  0.4264000332832606
 
  0.00000000E+00  0.00000000E+00  0.00000000E+00
  0.00000000E+00  0.00000000E+00  0.00000000E+00
  0.00000000E+00  0.00000000E+00  0.00000000E+00
  0.00000000E+00  0.00000000E+00  0.00000000E+00
  0.00000000E+00  0.00000000E+00  0.00000000E+00
  0.00000000E+00  0.00000000E+00  0.00000000E+00
  0.00000000E+00  0.00000000E+00  0.00000000E+00
  0.00000000E+00  0.00000000E+00  0.00000000E+00
  0.00000000E+00  0.00000000E+00  0.00000000E+00
  0.00000000E+00  0.00000000E+00  0.00000000E+00
  0.00000000E+00  0.00000000E+00  0.00000000E+00
  0.00000000E+00  0.00000000E+00  0.00000000E+00
