MA-Pb-I                                 
   1.00000000000000     
     5.8892445321787328   -0.0048008041779134    0.0656571269169357
    -0.0053334077729528    5.8544884580747532    0.0012821621476484
     0.0639774282558244    0.0006908469467942    6.0230320529523143
   C    N    H    Pb   Br
     1     1     6     1     3
Direct
  0.2199423615215259  0.5649301174115748  0.4174535936837498 
  0.2977278374977638  0.6894557301939124  0.1566175925475863 
  0.0950162664311662  0.6957484293461809  0.4440373238459879 
  0.0025069972647582  0.7706563753071368  0.1134992679511160 
  0.4179073704823060  0.0670303818833080  0.5802443649357202 
  0.7835998727583000  0.4124983719933986  0.5235202623543448 
  0.2098378176825978  0.7173714085316809  0.0037776755635381 
  0.4209333090516207  0.5733233135404383  0.1213465557498026 
  0.4284773091265559  0.3929889498907783  0.4940347192015105 
  0.4352272726238539  0.4972012503325617  0.9832769846011953
  0.4159970891092727  0.9985715009710078  0.5336351900357424
  0.9598885390497535  0.4995712578389358  0.4264000332832606
 
  0.00000000E+00  0.00000000E+00  0.00000000E+00
  0.00000000E+00  0.00000000E+00  0.00000000E+00
  0.00000000E+00  0.00000000E+00  0.00000000E+00
  0.00000000E+00  0.00000000E+00  0.00000000E+00
  0.00000000E+00  0.00000000E+00  0.00000000E+00
  0.00000000E+00  0.00000000E+00  0.00000000E+00
  0.00000000E+00  0.00000000E+00  0.00000000E+00
  0.00000000E+00  0.00000000E+00  0.00000000E+00
  0.00000000E+00  0.00000000E+00  0.00000000E+00
  0.00000000E+00  0.00000000E+00  0.00000000E+00
  0.00000000E+00  0.00000000E+00  0.00000000E+00
  0.00000000E+00  0.00000000E+00  0.00000000E+00
