MA-Pb-I                                 
   1.00000000000000     
     6.2884187138843197    0.0009579558247489    0.0690993966769832
     0.0005978161223733    6.2287690412624563   -0.0003732067435118
     0.0697053521696059    0.0000445224912706    6.3737103126460282
   C    N    H    Pb   I 
     1     1     6     1     3
Direct
  0.5342036257805601  0.4679689794075834  0.4744312497819700
  0.7298479887087230  0.3405683949709780  0.5098813931153862
  0.5270453104522580  0.5071364466762447  0.3062944990420049
  0.5430718229325651  0.6169059645845868  0.5668267494431883
  0.3952237244243368  0.3735238394222281  0.5254539844830691
  0.8645794790032216  0.4304289717065451  0.4699114190620952
  0.7373327812071134  0.1998638003304400  0.4260953314193960
  0.7488760543797749  0.2970681374026729  0.6665988963003581
  0.1061633785411836  0.8421061579136684 -0.0385900858784395
  0.0940527657841997  0.8356668222099288  0.4623187186373647
  0.6108425097621806  0.8535977238780698 -0.0394599952215232
  0.1072141636501099  0.3398123126253551  0.9600048232113356
 
  0.00000000E+00  0.00000000E+00  0.00000000E+00
  0.00000000E+00  0.00000000E+00  0.00000000E+00
  0.00000000E+00  0.00000000E+00  0.00000000E+00
  0.00000000E+00  0.00000000E+00  0.00000000E+00
  0.00000000E+00  0.00000000E+00  0.00000000E+00
  0.00000000E+00  0.00000000E+00  0.00000000E+00
  0.00000000E+00  0.00000000E+00  0.00000000E+00
  0.00000000E+00  0.00000000E+00  0.00000000E+00
  0.00000000E+00  0.00000000E+00  0.00000000E+00
  0.00000000E+00  0.00000000E+00  0.00000000E+00
  0.00000000E+00  0.00000000E+00  0.00000000E+00
  0.00000000E+00  0.00000000E+00  0.00000000E+00
