MA-Pb-I                                 
   1.0000000000000000     
     6.2884187138843197    0.0009579558247489    0.0690993966769832
     0.0005978161223733    6.2287690412624563   -0.0003732067435118
     0.0697053521696059    0.0000445224912706    6.3737103126460282
   C    N    H    Pb   I 
     1     1     6     1     3
Direct
  0.4469860973465982  0.5159864924424957  0.5123425711399294 
  0.6704017507610686  0.4504369927929286  0.5005260518048450 
  0.3971235888162999  0.5579269435952607  0.3522851949005538 
  0.4329968016918722  0.6555566652828971  0.6192323685514816 
  0.3502784775362132  0.3817046677274747  0.5731972466673475 
  0.7690298685669719  0.5737924345821153  0.4437446648464435 
  0.6914678096716418  0.3171612787681537  0.4006403251175157 
  0.7289147089202503  0.4081389239461169  0.6471905819275565 
  0.2701533966471470  0.7440081591576013  0.8193186553679161 
  0.9094873486598019  0.9999820990246278  0.4751454839169895
  0.8992708791277906  0.4999580210910821  0.0236644354684188
  0.4323428768805755  0.9999948727175436  0.9224794036872126

  0.00000000E+00  0.00000000E+00  0.00000000E+00
  0.00000000E+00  0.00000000E+00  0.00000000E+00
  0.00000000E+00  0.00000000E+00  0.00000000E+00
  0.00000000E+00  0.00000000E+00  0.00000000E+00
  0.00000000E+00  0.00000000E+00  0.00000000E+00
  0.00000000E+00  0.00000000E+00  0.00000000E+00
  0.00000000E+00  0.00000000E+00  0.00000000E+00
  0.00000000E+00  0.00000000E+00  0.00000000E+00
  0.00000000E+00  0.00000000E+00  0.00000000E+00
  0.00000000E+00  0.00000000E+00  0.00000000E+00
  0.00000000E+00  0.00000000E+00  0.00000000E+00
  0.00000000E+00  0.00000000E+00  0.00000000E+00
