MA-Pb-I                                 
   1.00000000000000     
     5.8857348584972646   -0.0000116429338373    0.0677019167604032
    -0.0000113721705701    5.8535748976198549   -0.0000048572736550
     0.0678468051824150   -0.0000044748208102    6.0066012361495211
   C    N    H    Pb   Br
     1     1     6     1     3
Direct
  0.2902803026785961  0.7610809458123668  0.3428108460957162
  0.1986980243127121  0.5249272011998585  0.2553946162360177
  0.3457083337227971  0.8839099637391286  0.2186159812764927
  0.2354458444631504  0.0196542485233024  0.1872482958039328
  0.6147217812657857  0.5328645881336698  0.8751088228646395
  0.6783243123223812  0.1447424745647581  0.5515917490413997
  0.0681320891704829  0.6444365946471962  0.2307834526366364
  0.1360072743529628  0.4059222012693198  0.3648014246935674
  0.5188934135708081  0.5194043393088990  0.5457415594218773
  0.4343825501137815  0.4999407920523851  0.9818407606070920
  0.4217797225331665  0.9999416700962840  0.5296464633737443
  0.9610032600387797  0.4999434169907246  0.4296279775420402
 
  0.00000000E+00  0.00000000E+00  0.00000000E+00
  0.00000000E+00  0.00000000E+00  0.00000000E+00
  0.00000000E+00  0.00000000E+00  0.00000000E+00
  0.00000000E+00  0.00000000E+00  0.00000000E+00
  0.00000000E+00  0.00000000E+00  0.00000000E+00
  0.00000000E+00  0.00000000E+00  0.00000000E+00
  0.00000000E+00  0.00000000E+00  0.00000000E+00
  0.00000000E+00  0.00000000E+00  0.00000000E+00
  0.00000000E+00  0.00000000E+00  0.00000000E+00
  0.00000000E+00  0.00000000E+00  0.00000000E+00
  0.00000000E+00  0.00000000E+00  0.00000000E+00
  0.00000000E+00  0.00000000E+00  0.00000000E+00
