MA-Pb-I                                 
   1.0000000000000000     
     5.8857348584972646   -0.0000116429338373    0.0677019167604032
    -0.0000113721705701    5.8535748976198549   -0.0000048572736550
     0.0678468051824150   -0.0000044748208102    6.0066012361495211
   C    N    H    Pb   Br
     1     1     6     1     3
Direct
  0.2902803026785989  0.7610809458123688  0.3428108460957170 
  0.1986980243127086  0.5249272011998554  0.2553946162360202 
  0.3457083337227941  0.8839099637391290  0.2186159812764957 
  0.2354458444631474  0.0196542485233047  0.1872482958039353 
  0.6147217812657839  0.5328645881336680  0.8751088228646390 
  0.6783243123223844  0.1447424745647596  0.5515917490414015 
  0.0681320891704857  0.6444365946471949  0.2307834526366395 
  0.1360072743529637  0.4059222012693183  0.3648014246935684 
  0.5188934135708088  0.5194043393088955  0.5457415594218756 
  0.4343825501137815  0.4999407920523851  0.9818407606070920
  0.4217797225331665  0.9999416700962840  0.5296464633737443
  0.9610032600387797  0.4999434169907246  0.4296279775420402

  0.00000000E+00  0.00000000E+00  0.00000000E+00
  0.00000000E+00  0.00000000E+00  0.00000000E+00
  0.00000000E+00  0.00000000E+00  0.00000000E+00
  0.00000000E+00  0.00000000E+00  0.00000000E+00
  0.00000000E+00  0.00000000E+00  0.00000000E+00
  0.00000000E+00  0.00000000E+00  0.00000000E+00
  0.00000000E+00  0.00000000E+00  0.00000000E+00
  0.00000000E+00  0.00000000E+00  0.00000000E+00
  0.00000000E+00  0.00000000E+00  0.00000000E+00
  0.00000000E+00  0.00000000E+00  0.00000000E+00
  0.00000000E+00  0.00000000E+00  0.00000000E+00
  0.00000000E+00  0.00000000E+00  0.00000000E+00
