MA-Pb-I                                 
   1.00000000000000     
     5.8857348584972646   -0.0000116429338373    0.0677019167604032
    -0.0000113721705701    5.8535748976198549   -0.0000048572736550
     0.0678468051824150   -0.0000044748208102    6.0066012361495211
   C    N    H    Pb   Br
     1     1     6     1     3
Direct
  0.1690865832094312  0.2203834740459018  0.1971507413617958
  0.0319364036601852  0.0084894694913565  0.1179300913196997
  0.0821828581421823  0.3599107718627067  0.1001968655214484
  0.5553969246593355 -0.0833003909750194  0.0981906279903291
  0.5584355285245801 -0.1016793132091792 -0.0362348734175019
 -0.1170602895263978  0.9784041946628456  0.2098354570199719
 -0.0135262546798417  0.0288682419910425 -0.0478580820267906
  0.1342379102100768  0.8636075158683337  0.1312794409411988
  0.5517621944151174  0.3829619325507144  0.5154435561630875
  0.5843044175524464  0.3976234392226546 -0.0060717561209387
  0.5578003397736504  0.8912636166344107  0.5187525101934218
  0.0494143010973957  0.3513760439587855  0.5238565338945270
 
  0.00000000E+00  0.00000000E+00  0.00000000E+00
  0.00000000E+00  0.00000000E+00  0.00000000E+00
  0.00000000E+00  0.00000000E+00  0.00000000E+00
  0.00000000E+00  0.00000000E+00  0.00000000E+00
  0.00000000E+00  0.00000000E+00  0.00000000E+00
  0.00000000E+00  0.00000000E+00  0.00000000E+00
  0.00000000E+00  0.00000000E+00  0.00000000E+00
  0.00000000E+00  0.00000000E+00  0.00000000E+00
  0.00000000E+00  0.00000000E+00  0.00000000E+00
  0.00000000E+00  0.00000000E+00  0.00000000E+00
  0.00000000E+00  0.00000000E+00  0.00000000E+00
  0.00000000E+00  0.00000000E+00  0.00000000E+00
