MA-Pb-I                                 
   1.0000000000000000     
     5.8857348584972646   -0.0000116429338373    0.0677019167604032
    -0.0000113721705701    5.8535748976198549   -0.0000048572736550
     0.0678468051824150   -0.0000044748208102    6.0066012361495211
   C    N    H    Pb   Br
     1     1     6     1     3
Direct
  0.2967497467085622  0.5425609318870532  0.4760216937336726 
  0.4735885861540741  0.0936164868471273  0.7430960187067598 
  0.2099868915443266  0.3819053209976336  0.4603506895778879 
  0.1626374487370976  0.0616077419641291  0.7821043751297700 
  0.6617627666487877  0.8330998756132810  0.3615053590801198 
  0.8735194222162596  0.2952784126569367  0.3278540719892940 
  0.3865039324501380  0.0604237979374966  0.8955761039888831 
  0.5621723951203139  0.2404980769965655  0.7684115700547803 
  0.4881152379203241  0.4880157325925216  0.3681595111222974 
  0.4343825501137815  0.4999407920523851  0.9818407606070920
  0.4217797225331665  0.9999416700962840  0.5296464633737443
  0.9610032600387797  0.4999434169907246  0.4296279775420402

  0.00000000E+00  0.00000000E+00  0.00000000E+00
  0.00000000E+00  0.00000000E+00  0.00000000E+00
  0.00000000E+00  0.00000000E+00  0.00000000E+00
  0.00000000E+00  0.00000000E+00  0.00000000E+00
  0.00000000E+00  0.00000000E+00  0.00000000E+00
  0.00000000E+00  0.00000000E+00  0.00000000E+00
  0.00000000E+00  0.00000000E+00  0.00000000E+00
  0.00000000E+00  0.00000000E+00  0.00000000E+00
  0.00000000E+00  0.00000000E+00  0.00000000E+00
  0.00000000E+00  0.00000000E+00  0.00000000E+00
  0.00000000E+00  0.00000000E+00  0.00000000E+00
  0.00000000E+00  0.00000000E+00  0.00000000E+00
