MA-Pb-I                                 
   1.00000000000000     
     5.8857348584972646   -0.0000116429338373    0.0677019167604032
    -0.0000113721705701    5.8535748976198549   -0.0000048572736550
     0.0678468051824150   -0.0000044748208102    6.0066012361495211
   C    N    H    Pb   Br
     1     1     6     1     3
Direct
  0.6134139411678334  0.0024917318650434  0.7635028969760835
  0.9784314175246398  0.9692373050805059  0.2052733760702669
  0.6879890483926279  0.8344967421266561  0.7340579607028659
  0.9498315881591775  0.8115470231100351  0.1388971488151194
 -0.2621384321135594  0.1358133200822394  0.7377826280368693
  0.5117654084253276  0.0169302937664664  0.9151498935425642
  0.8895102053272395  0.9778015956965264  0.3548814078631799
  0.9060247722456267  0.0887904098568654  0.1056926756767757
  0.3910638235335736  0.5178124901011955  0.4978208573054589
  0.4106076924191046  0.5185756643050962  0.0110358974057234
  0.3953577225736751  0.0195001097316927  0.5179801932939867
 -0.1079738559306367  0.4996359896224794  0.5104510141208799
 
  0.00000000E+00  0.00000000E+00  0.00000000E+00
  0.00000000E+00  0.00000000E+00  0.00000000E+00
  0.00000000E+00  0.00000000E+00  0.00000000E+00
  0.00000000E+00  0.00000000E+00  0.00000000E+00
  0.00000000E+00  0.00000000E+00  0.00000000E+00
  0.00000000E+00  0.00000000E+00  0.00000000E+00
  0.00000000E+00  0.00000000E+00  0.00000000E+00
  0.00000000E+00  0.00000000E+00  0.00000000E+00
  0.00000000E+00  0.00000000E+00  0.00000000E+00
  0.00000000E+00  0.00000000E+00  0.00000000E+00
  0.00000000E+00  0.00000000E+00  0.00000000E+00
  0.00000000E+00  0.00000000E+00  0.00000000E+00
