MA-Pb-I                                 
   1.0000000000000000     
     6.2884187138843197    0.0009579558247489    0.0690993966769832
     0.0005978161223733    6.2287690412624563   -0.0003732067435118
     0.0697053521696059    0.0000445224912706    6.3737103126460282
   C    N    H    Pb   I 
     1     1     6     1     3
Direct
  0.4740348811854800  0.5453721671087295  0.6020539150919286 
  0.4213020422762007  0.5113677982322307  0.3775235790079180 
  0.5861262450066340  0.4220715862635718  0.6478374034739318 
  0.3270260897432282  0.5332401131674258  0.6987089244610829 
  0.5473532723963707  0.7046038224409130  0.6209472250759529 
  0.3503047637993657  0.3614845074539582  0.3517829080722409 
  0.5567712399731685  0.5221110941288539  0.2789536482414279 
  0.3151402328609408  0.6229392920771969  0.3227070734671208 
  0.7711065756389166  0.3585459741217041  0.0590802782616920 
  0.9094873486598019  0.9999820990246278  0.4751454839169895
  0.8992708791277906  0.4999580210910821  0.0236644354684188
  0.4323428768805755  0.9999948727175436  0.9224794036872126

  0.00000000E+00  0.00000000E+00  0.00000000E+00
  0.00000000E+00  0.00000000E+00  0.00000000E+00
  0.00000000E+00  0.00000000E+00  0.00000000E+00
  0.00000000E+00  0.00000000E+00  0.00000000E+00
  0.00000000E+00  0.00000000E+00  0.00000000E+00
  0.00000000E+00  0.00000000E+00  0.00000000E+00
  0.00000000E+00  0.00000000E+00  0.00000000E+00
  0.00000000E+00  0.00000000E+00  0.00000000E+00
  0.00000000E+00  0.00000000E+00  0.00000000E+00
  0.00000000E+00  0.00000000E+00  0.00000000E+00
  0.00000000E+00  0.00000000E+00  0.00000000E+00
  0.00000000E+00  0.00000000E+00  0.00000000E+00
