MA-Pb-I                                 
   1.00000000000000     
     6.2884187138843197    0.0009579558247489    0.0690993966769832
     0.0005978161223733    6.2287690412624563   -0.0003732067435118
     0.0697053521696059    0.0000445224912706    6.3737103126460282
   C    N    H    Pb   I 
     1     1     6     1     3
Direct
  0.5424209681162631  0.4489519190145942  0.5032792698490401
  0.5000797161370699  0.4938942204230861  0.2857900858004383
  0.7210315040002675  0.4491830497630387  0.5087125565035220
  0.4823896832845557  0.2769610436751996  0.5439349839466607
  0.4799228164399942 -0.4305927324436404  0.6238533529407153
  0.5564327842853396  0.3871262911802654  0.1728745816794485
  0.5564108900565280  0.6481968417614256  0.2431861220780676
  0.3282916110073407  0.5002385562678551  0.2683662641222000
  0.0003668284157395  0.2386384377762669  0.7078146771059620
  0.9795223488593170 -0.2426750230391078  0.5737566920932816
  0.0329314774793406  0.2416688105917222  0.2008734521392948
  0.4794575246205997  0.0702896344750777 -0.1322973509281342
 
  0.00000000E+00  0.00000000E+00  0.00000000E+00
  0.00000000E+00  0.00000000E+00  0.00000000E+00
  0.00000000E+00  0.00000000E+00  0.00000000E+00
  0.00000000E+00  0.00000000E+00  0.00000000E+00
  0.00000000E+00  0.00000000E+00  0.00000000E+00
  0.00000000E+00  0.00000000E+00  0.00000000E+00
  0.00000000E+00  0.00000000E+00  0.00000000E+00
  0.00000000E+00  0.00000000E+00  0.00000000E+00
  0.00000000E+00  0.00000000E+00  0.00000000E+00
  0.00000000E+00  0.00000000E+00  0.00000000E+00
  0.00000000E+00  0.00000000E+00  0.00000000E+00
  0.00000000E+00  0.00000000E+00  0.00000000E+00
