MA-Pb-I                                 
   1.0000000000000000     
     6.2884187138843197    0.0009579558247489    0.0690993966769832
     0.0005978161223733    6.2287690412624563   -0.0003732067435118
     0.0697053521696059    0.0000445224912706    6.3737103126460282
   C    N    H    Pb   I 
     1     1     6     1     3
Direct
  0.5341217912430197  0.3466900067133507  0.5250652127509043 
  0.4796738834345625  0.4766518340995176  0.3393334976835801 
  0.6878751944927006  0.4008124999589469  0.5824610453738919 
  0.5431003555900962  0.1773071901926878  0.4767971158328532 
  0.4112108828962110  0.3689732793526386  0.6494984401525050 
  0.5923085628899387  0.4600977465000827  0.2160144492214907 
  0.4686897667491045  0.6396729962841918  0.3778925827776478 
  0.3350763368722838  0.4341642801456388  0.2760110326019878 
  0.3661002738662760  0.2775762233654759  0.6357819878630162 
  0.9094873486598019  0.9999820990246278  0.4751454839169895
  0.8992708791277906  0.4999580210910821  0.0236644354684188
  0.4323428768805755  0.9999948727175436  0.9224794036872126

  0.00000000E+00  0.00000000E+00  0.00000000E+00
  0.00000000E+00  0.00000000E+00  0.00000000E+00
  0.00000000E+00  0.00000000E+00  0.00000000E+00
  0.00000000E+00  0.00000000E+00  0.00000000E+00
  0.00000000E+00  0.00000000E+00  0.00000000E+00
  0.00000000E+00  0.00000000E+00  0.00000000E+00
  0.00000000E+00  0.00000000E+00  0.00000000E+00
  0.00000000E+00  0.00000000E+00  0.00000000E+00
  0.00000000E+00  0.00000000E+00  0.00000000E+00
  0.00000000E+00  0.00000000E+00  0.00000000E+00
  0.00000000E+00  0.00000000E+00  0.00000000E+00
  0.00000000E+00  0.00000000E+00  0.00000000E+00
