MA-Pb-I                                 
   1.0000000000000000     
     6.2884187138843197    0.0009579558247489    0.0690993966769832
     0.0005978161223733    6.2287690412624563   -0.0003732067435118
     0.0697053521696059    0.0000445224912706    6.3737103126460282
   C    N    H    Pb   I 
     1     1     6     1     3
Direct
  0.4306071927362848  0.5309485632080100  0.4096599226637256 
  0.5474323029805209  0.3987556204929502  0.5620667490753886 
  0.4705323776060861  0.6956984910795715  0.4432318717863497 
  0.2575051284506537  0.5045449584650555  0.4306238757005111 
  0.4801645140146290  0.4882679935012506  0.2459232298030404 
  0.5049215363510475  0.4334531961587927  0.7206766778609088 
  0.7135480929374833  0.4181960837398626  0.5475420839015209 
  0.5172706065708784  0.2396434761805644  0.5397738152435521 
  0.2958158446118238  0.9371336957685632  0.0827481747495158 
  0.9094873486598019  0.9999820990246278  0.4751454839169895
  0.8992708791277906  0.4999580210910821  0.0236644354684188
  0.4323428768805755  0.9999948727175436  0.9224794036872126

  0.00000000E+00  0.00000000E+00  0.00000000E+00
  0.00000000E+00  0.00000000E+00  0.00000000E+00
  0.00000000E+00  0.00000000E+00  0.00000000E+00
  0.00000000E+00  0.00000000E+00  0.00000000E+00
  0.00000000E+00  0.00000000E+00  0.00000000E+00
  0.00000000E+00  0.00000000E+00  0.00000000E+00
  0.00000000E+00  0.00000000E+00  0.00000000E+00
  0.00000000E+00  0.00000000E+00  0.00000000E+00
  0.00000000E+00  0.00000000E+00  0.00000000E+00
  0.00000000E+00  0.00000000E+00  0.00000000E+00
  0.00000000E+00  0.00000000E+00  0.00000000E+00
  0.00000000E+00  0.00000000E+00  0.00000000E+00
