MA-Pb-I                                 
   1.0000000000000000     
     6.2884187138843197    0.0009579558247489    0.0690993966769832
     0.0005978161223733    6.2287690412624563   -0.0003732067435118
     0.0697053521696059    0.0000445224912706    6.3737103126460282
   C    N    H    Pb   I 
     1     1     6     1     3
Direct
  0.6975050401556719  0.3902432752130233  0.5109078230131883 
  0.4806159190017529  0.4685566005249992  0.4765996107633352 
  0.6849434481701144  0.2354952135556960  0.5867950993416544 
  0.7839958426470426  0.5027763396529814  0.6155816632143027 
  0.7791402469977781  0.3754960904830867  0.3553267275737982 
  0.3965923566218433  0.4857423480023539  0.6208663345581670 
  0.3920970474549663  0.3664769390994999  0.3769627436606804 
  0.4799343795050461  0.6154246352302557  0.4048173484518593 
  0.1439412937817964  0.0706101610533905  0.7443616273720843 
  0.9094873486598019  0.9999820990246278  0.4751454839169895
  0.8992708791277906  0.4999580210910821  0.0236644354684188
  0.4323428768805755  0.9999948727175436  0.9224794036872126

  0.00000000E+00  0.00000000E+00  0.00000000E+00
  0.00000000E+00  0.00000000E+00  0.00000000E+00
  0.00000000E+00  0.00000000E+00  0.00000000E+00
  0.00000000E+00  0.00000000E+00  0.00000000E+00
  0.00000000E+00  0.00000000E+00  0.00000000E+00
  0.00000000E+00  0.00000000E+00  0.00000000E+00
  0.00000000E+00  0.00000000E+00  0.00000000E+00
  0.00000000E+00  0.00000000E+00  0.00000000E+00
  0.00000000E+00  0.00000000E+00  0.00000000E+00
  0.00000000E+00  0.00000000E+00  0.00000000E+00
  0.00000000E+00  0.00000000E+00  0.00000000E+00
  0.00000000E+00  0.00000000E+00  0.00000000E+00
