MA-Pb-I                                 
   1.0000000000000000     
     5.8857348584972646   -0.0000116429338373    0.0677019167604032
    -0.0000113721705701    5.8535748976198549   -0.0000048572736550
     0.0678468051824150   -0.0000044748208102    6.0066012361495211
   C    N    H    Pb   Br
     1     1     6     1     3
Direct
  0.6871156831905925  0.3948994299063585  0.2967571540343266 
  0.1340004346780717  0.9524372737962113  0.3404014574629273 
  0.5164757664112949  0.4015526528754929  0.2302639051782909 
  0.0618679367802622  0.0336474778685232  0.3954916715092807 
  0.9005663666749109  0.4637344545958921  0.7524600309648413 
  0.2555182354070271  0.7091638596588744  0.9463319038765547 
  0.0897360466854560  0.1234258231946283  0.3132123448313263 
  0.2912264818289644  0.9537057701337674  0.4134803934855318 
  0.5271007907427805  0.5547799300502980  0.5110519562179933 
  0.4343825501137815  0.4999407920523851  0.9818407606070920
  0.4217797225331665  0.9999416700962840  0.5296464633737443
  0.9610032600387797  0.4999434169907246  0.4296279775420402

  0.00000000E+00  0.00000000E+00  0.00000000E+00
  0.00000000E+00  0.00000000E+00  0.00000000E+00
  0.00000000E+00  0.00000000E+00  0.00000000E+00
  0.00000000E+00  0.00000000E+00  0.00000000E+00
  0.00000000E+00  0.00000000E+00  0.00000000E+00
  0.00000000E+00  0.00000000E+00  0.00000000E+00
  0.00000000E+00  0.00000000E+00  0.00000000E+00
  0.00000000E+00  0.00000000E+00  0.00000000E+00
  0.00000000E+00  0.00000000E+00  0.00000000E+00
  0.00000000E+00  0.00000000E+00  0.00000000E+00
  0.00000000E+00  0.00000000E+00  0.00000000E+00
  0.00000000E+00  0.00000000E+00  0.00000000E+00
