MA-Pb-I                                 
   1.00000000000000     
     5.8892445321787328   -0.0048008041779134    0.0656571269169357
    -0.0053334077729528    5.8544884580747532    0.0012821621476484
     0.0639774282558244    0.0006908469467942    6.0230320529523143
   C    N    H    Pb   Br
     1     1     6     1     3
Direct
  0.0861850643515326  0.4064824988182677  0.6237124107421061
  0.0320160182673797  0.2058639969243252  0.6531502441473926
 -0.0163180930615547  0.5663550028178971  0.6765880114817334
  0.1329010733561675 -0.0109400810599721  0.0620610491299125
  0.8234268979260095  0.5308753655789927  0.4371465187975799
  0.8019986076233216  0.5755382265896681  0.0812008019182819
  0.0990484030925901  0.0776842687742751  0.9729183968994016
  0.1546427616368601  0.0841968126901408  0.5978808168336508
  0.4920250667671631  0.4991011463564302  0.5027892625820107
  0.5298075434392436  0.5099941895575748  0.9619495502665597
  0.5110819374295134 -0.0091961754048470  0.5029065437579087
  0.0354053459469714  0.6020992099958054  0.2239812752294547
 
  0.00000000E+00  0.00000000E+00  0.00000000E+00
  0.00000000E+00  0.00000000E+00  0.00000000E+00
  0.00000000E+00  0.00000000E+00  0.00000000E+00
  0.00000000E+00  0.00000000E+00  0.00000000E+00
  0.00000000E+00  0.00000000E+00  0.00000000E+00
  0.00000000E+00  0.00000000E+00  0.00000000E+00
  0.00000000E+00  0.00000000E+00  0.00000000E+00
  0.00000000E+00  0.00000000E+00  0.00000000E+00
  0.00000000E+00  0.00000000E+00  0.00000000E+00
  0.00000000E+00  0.00000000E+00  0.00000000E+00
  0.00000000E+00  0.00000000E+00  0.00000000E+00
  0.00000000E+00  0.00000000E+00  0.00000000E+00
