MA-Pb-I                                 
   1.00000000000000     
     6.2884187138843197    0.0009579558247489    0.0690993966769832
     0.0005978161223733    6.2287690412624563   -0.0003732067435118
     0.0697053521696059    0.0000445224912706    6.3737103126460282
   C    N    H    Pb   I 
     1     1     6     1     3
Direct
  0.3878151475367165  0.3619412076917614  0.7461152941072764
 -0.0630484015878908 -0.2723962091833708  0.1770311780058728
  0.9264361578876091  0.6594193064160223  0.3231769696976546
  0.4672081884564944  0.8036749698582011  0.1813619886105164
  0.0939873274258031  0.7624487996899912  0.1517080568081162
  0.4956189037019833 -0.1989568217178135  0.3007646656304727
  0.5288356795806733  0.3287443509464851  0.6397631984975515
  0.2284509432464057  0.3133231807359050  0.6975324975418175
  0.4322519080521036 -0.1436225941501157 -0.3097556148655640
  0.9430918363604476 -0.0704016021479293  0.6693950454663016
  0.8446776511093268  0.4704918941621126 -0.0015798685850422
  0.4226889845800900  0.1712559701516864  0.0339477385869661
 
  0.00000000E+00  0.00000000E+00  0.00000000E+00
  0.00000000E+00  0.00000000E+00  0.00000000E+00
  0.00000000E+00  0.00000000E+00  0.00000000E+00
  0.00000000E+00  0.00000000E+00  0.00000000E+00
  0.00000000E+00  0.00000000E+00  0.00000000E+00
  0.00000000E+00  0.00000000E+00  0.00000000E+00
  0.00000000E+00  0.00000000E+00  0.00000000E+00
  0.00000000E+00  0.00000000E+00  0.00000000E+00
  0.00000000E+00  0.00000000E+00  0.00000000E+00
  0.00000000E+00  0.00000000E+00  0.00000000E+00
  0.00000000E+00  0.00000000E+00  0.00000000E+00
  0.00000000E+00  0.00000000E+00  0.00000000E+00
