MA-Pb-I                                 
   1.00000000000000     
     5.8857348584972646   -0.0000116429338373    0.0677019167604032
    -0.0000113721705701    5.8535748976198549   -0.0000048572736550
     0.0678468051824150   -0.0000044748208102    6.0066012361495211
   C    N    H    Pb   Br
     1     1     6     1     3
Direct
  0.9093104632672823  0.4682341584764809  0.1112761048475510
  0.1203238557153273  0.0200415310016897 -0.0085975905407587
  0.8723824873983667  0.2835799324296567  0.1450576383152931
  0.9006270446025846  0.0455071464713652  0.5087134591408831
  0.0363767844279884  0.0319712982309190  0.5033518990596076
  0.0310124370075146 -0.1044869044857343  0.9119209403902494
  0.2329208211008337 -0.0615946401253752  0.0934076465723267
  0.2145584672131330  0.1009400430946296 -0.1302054512629401
  0.4826800442645476  0.5448929748653919  0.5125244888607067
  0.5325356148128069  0.5469101180036003  0.0329211866608380
  0.4762515518549722  0.0478672944893006  0.5104532616313834
  0.9705249409491576  0.5375062776569047  0.4804098585609485
 
  0.00000000E+00  0.00000000E+00  0.00000000E+00
  0.00000000E+00  0.00000000E+00  0.00000000E+00
  0.00000000E+00  0.00000000E+00  0.00000000E+00
  0.00000000E+00  0.00000000E+00  0.00000000E+00
  0.00000000E+00  0.00000000E+00  0.00000000E+00
  0.00000000E+00  0.00000000E+00  0.00000000E+00
  0.00000000E+00  0.00000000E+00  0.00000000E+00
  0.00000000E+00  0.00000000E+00  0.00000000E+00
  0.00000000E+00  0.00000000E+00  0.00000000E+00
  0.00000000E+00  0.00000000E+00  0.00000000E+00
  0.00000000E+00  0.00000000E+00  0.00000000E+00
  0.00000000E+00  0.00000000E+00  0.00000000E+00
