MA-Pb-I                                 
   1.00000000000000     
     6.2884187138843197    0.0009579558247489    0.0690993966769832
     0.0005978161223733    6.2287690412624563   -0.0003732067435118
     0.0697053521696059    0.0000445224912706    6.3737103126460282
   C    N    H    Pb   I 
     1     1     6     1     3
Direct
  0.4526560063103264  0.6310508828308475  0.3598126620700718
  0.5174029543052268  0.5220132396200610  0.5569447823318052
  0.5455901398889788  0.5618812812945601  0.2280480800994303
  0.4854533536207281  0.8041215704903328  0.3735151041378594
  0.2806569167518670  0.6046239086443932  0.3383985833808464
  0.6746276732354131  0.5548477196693555  0.5990614475244203
  0.5043543675842017  0.3562259648920501  0.5500737787550729
  0.4195206313740412  0.5708128724069360  0.6827095600787099
 -0.0204237504527891  0.0256887198368571  0.8986863178213788
  0.9723260228111139  0.0256600988776761  0.4041576003008406
 -0.0140061013720425  0.5284000503239494 -0.1026025188167309
  0.4803810478170248  0.0208816492363547  0.8925422487952362
 
  0.00000000E+00  0.00000000E+00  0.00000000E+00
  0.00000000E+00  0.00000000E+00  0.00000000E+00
  0.00000000E+00  0.00000000E+00  0.00000000E+00
  0.00000000E+00  0.00000000E+00  0.00000000E+00
  0.00000000E+00  0.00000000E+00  0.00000000E+00
  0.00000000E+00  0.00000000E+00  0.00000000E+00
  0.00000000E+00  0.00000000E+00  0.00000000E+00
  0.00000000E+00  0.00000000E+00  0.00000000E+00
  0.00000000E+00  0.00000000E+00  0.00000000E+00
  0.00000000E+00  0.00000000E+00  0.00000000E+00
  0.00000000E+00  0.00000000E+00  0.00000000E+00
  0.00000000E+00  0.00000000E+00  0.00000000E+00
