MA-Pb-I                                 
   1.00000000000000     
     5.8892445321787328   -0.0048008041779134    0.0656571269169357
    -0.0053334077729528    5.8544884580747532    0.0012821621476484
     0.0639774282558244    0.0006908469467942    6.0230320529523143
   C    N    H    Pb   Br
     1     1     6     1     3
Direct
 -0.0151300656275274  0.6190133385959020  0.2738324379301094
  0.5658106547750582  0.1397305475777436  0.2399665584542341
  0.0688098458794719  0.5267743934950634  0.1315453445043209
  0.2932712957798108  0.4806095964585755  0.6865582194089001
 -0.0392362882666264  0.8890975139625381  0.0396130403327846
  0.0711233398567789  0.7848545427649244  0.3199627931348834
  0.6861703115844210  0.1228453877652229  0.3596888717776301
  0.4164399922937679  0.1288058574046508  0.3363620489735109
  0.5510513944392144  0.6129811441849480  0.2528974104244257
  0.5121175829454438  0.6087603399604522  0.7549657658510661
  0.0140404019479780  0.0049710164723584  0.8256568671531316
  0.0159307093144166  0.4002098288787194  0.5295507788709291
 
  0.00000000E+00  0.00000000E+00  0.00000000E+00
  0.00000000E+00  0.00000000E+00  0.00000000E+00
  0.00000000E+00  0.00000000E+00  0.00000000E+00
  0.00000000E+00  0.00000000E+00  0.00000000E+00
  0.00000000E+00  0.00000000E+00  0.00000000E+00
  0.00000000E+00  0.00000000E+00  0.00000000E+00
  0.00000000E+00  0.00000000E+00  0.00000000E+00
  0.00000000E+00  0.00000000E+00  0.00000000E+00
  0.00000000E+00  0.00000000E+00  0.00000000E+00
  0.00000000E+00  0.00000000E+00  0.00000000E+00
  0.00000000E+00  0.00000000E+00  0.00000000E+00
  0.00000000E+00  0.00000000E+00  0.00000000E+00
