MA-Pb-I                                 
   1.0000000000000000     
     5.6267413476480952    0.0000416704727542    0.0620815770375229
    -0.0000317550626923    5.5940171136319288    0.0000254647194750
     0.0578866146782483   -0.0000342937909938    5.7648243532177101
   C    N    H    Pb   Cl
     1     1     6     1     3
Direct
  0.5091062988826618  0.3922488542939916  0.4350949321820319 
  0.4517306456124902  0.5960718857067798  0.5853993964401050 
  0.6994234750459218  0.3828082874348575  0.4233631886468643 
  0.4322673967020922  0.4187100179763388  0.2564421765688771 
  0.4388943675159620  0.2283474308796151  0.5171170966286813 
  0.5151754596600406  0.7562405308418951  0.5130169150407937 
  0.5214009853233292  0.5774899398542979  0.7577925798597498 
  0.2733800952251890  0.6165349006923588  0.6048787016842426 
  0.0882473830712870  0.6170730349761849  0.2292362208393925 
  0.9135858188955126  0.0000223702692494  0.4744099460480626
  0.9004629834686284  0.5000248740275239  0.0232973215355017
  0.4490472465535831  0.0000309138028598  0.9238306684389244

  0.00000000E+00  0.00000000E+00  0.00000000E+00
  0.00000000E+00  0.00000000E+00  0.00000000E+00
  0.00000000E+00  0.00000000E+00  0.00000000E+00
  0.00000000E+00  0.00000000E+00  0.00000000E+00
  0.00000000E+00  0.00000000E+00  0.00000000E+00
  0.00000000E+00  0.00000000E+00  0.00000000E+00
  0.00000000E+00  0.00000000E+00  0.00000000E+00
  0.00000000E+00  0.00000000E+00  0.00000000E+00
  0.00000000E+00  0.00000000E+00  0.00000000E+00
  0.00000000E+00  0.00000000E+00  0.00000000E+00
  0.00000000E+00  0.00000000E+00  0.00000000E+00
  0.00000000E+00  0.00000000E+00  0.00000000E+00
