MA-Pb-I                                 
   1.00000000000000     
     6.2884187138843197    0.0009579558247489    0.0690993966769832
     0.0005978161223733    6.2287690412624563   -0.0003732067435118
     0.0697053521696059    0.0000445224912706    6.3737103126460282
   C    N    H    Pb   I 
     1     1     6     1     3
Direct
  0.4053912593793595  0.5120534993047000  0.5448517595005542
  0.6077747243017108  0.5085868175940949  0.4195582727612941
  0.3135391094212894  0.3657800535476098  0.5105205962620636
  0.3139797361146975  0.6565853661290496  0.5036710648138921
  0.4425481488719837  0.5162369133206777  0.7134308897090137
  0.5844168326901462  0.5056146134005566  0.2589090193174295
  0.7004112897596292  0.3719922189898279  0.4517020311086413
  0.7013569392129452  0.6452781337993944  0.4473390478419578
  0.9407250311595124  0.0151237420481309  0.9251840596806696
  0.9373413296791233  0.0134333070297965  0.4291144282898823
  0.9380483674706018  0.5147560327189208 -0.0753601400335167
  0.4431019232761073  0.0163260518496942  0.9184999889594561
 
  0.00000000E+00  0.00000000E+00  0.00000000E+00
  0.00000000E+00  0.00000000E+00  0.00000000E+00
  0.00000000E+00  0.00000000E+00  0.00000000E+00
  0.00000000E+00  0.00000000E+00  0.00000000E+00
  0.00000000E+00  0.00000000E+00  0.00000000E+00
  0.00000000E+00  0.00000000E+00  0.00000000E+00
  0.00000000E+00  0.00000000E+00  0.00000000E+00
  0.00000000E+00  0.00000000E+00  0.00000000E+00
  0.00000000E+00  0.00000000E+00  0.00000000E+00
  0.00000000E+00  0.00000000E+00  0.00000000E+00
  0.00000000E+00  0.00000000E+00  0.00000000E+00
  0.00000000E+00  0.00000000E+00  0.00000000E+00
