MA-Pb-I                                 
   1.0000000000000000     
     6.2884187138843197    0.0009579558247489    0.0690993966769832
     0.0005978161223733    6.2287690412624563   -0.0003732067435118
     0.0697053521696059    0.0000445224912706    6.3737103126460282
   C    N    H    Pb   I 
     1     1     6     1     3
Direct
  0.4560260657385320  0.5252776897010724  0.5575696358636009 
  0.6244632037925173  0.5186108601102460  0.3965249056439835 
  0.3645822933034376  0.3794230427762726  0.5424668764552922 
  0.3529817437328869  0.6653199150186782  0.5280568393036787 
  0.5292106953703923  0.5351483287920669  0.7176753639975927 
  0.5621535084948390  0.5097224163533334  0.2409398999867834 
  0.7272838087594421  0.3877660395308374  0.4186813788396689 
  0.7181396589594937  0.6524951960852016  0.4013294477364466 
  0.7526926085173911  0.9680682685314863  0.8228873473116660 
  0.9094873486598019  0.9999820990246278  0.4751454839169895
  0.8992708791277906  0.4999580210910821  0.0236644354684188
  0.4323428768805755  0.9999948727175436  0.9224794036872126

  0.00000000E+00  0.00000000E+00  0.00000000E+00
  0.00000000E+00  0.00000000E+00  0.00000000E+00
  0.00000000E+00  0.00000000E+00  0.00000000E+00
  0.00000000E+00  0.00000000E+00  0.00000000E+00
  0.00000000E+00  0.00000000E+00  0.00000000E+00
  0.00000000E+00  0.00000000E+00  0.00000000E+00
  0.00000000E+00  0.00000000E+00  0.00000000E+00
  0.00000000E+00  0.00000000E+00  0.00000000E+00
  0.00000000E+00  0.00000000E+00  0.00000000E+00
  0.00000000E+00  0.00000000E+00  0.00000000E+00
  0.00000000E+00  0.00000000E+00  0.00000000E+00
  0.00000000E+00  0.00000000E+00  0.00000000E+00
