MA-Pb-I                                 
   1.00000000000000     
     5.8892445321787328   -0.0048008041779134    0.0656571269169357
    -0.0053334077729528    5.8544884580747532    0.0012821621476484
     0.0639774282558244    0.0006908469467942    6.0230320529523143
   C    N    H    Pb   Br
     1     1     6     1     3
Direct
  0.1683664245564623  0.2362738887093627  0.5208285270871645 
  0.8028291644601542  0.1059859817054970  0.5552005002291386 
  0.1128385086311668  0.1166551965441092  0.3942004349474196 
  0.6565160881618489  0.2421950946366510  0.8960264395752945 
  0.0050645329444004  0.4566198539277771  0.9847896144293302 
  0.6023723746137077  0.8660129989881771  0.3430948790177599 
  0.9324634539100904  0.0855477314973003  0.4341996331616001 
  0.8574854088851191  0.2280302966127397  0.6648738908011239 
  0.4421459956702443  0.4703493347475885  0.5050270361522936 
  0.4352272726238539  0.4972012503325617  0.9832769846011953
  0.4159970891092727  0.9985715009710078  0.5336351900357424
  0.9598885390497535  0.4995712578389358  0.4264000332832606
 
  0.00000000E+00  0.00000000E+00  0.00000000E+00
  0.00000000E+00  0.00000000E+00  0.00000000E+00
  0.00000000E+00  0.00000000E+00  0.00000000E+00
  0.00000000E+00  0.00000000E+00  0.00000000E+00
  0.00000000E+00  0.00000000E+00  0.00000000E+00
  0.00000000E+00  0.00000000E+00  0.00000000E+00
  0.00000000E+00  0.00000000E+00  0.00000000E+00
  0.00000000E+00  0.00000000E+00  0.00000000E+00
  0.00000000E+00  0.00000000E+00  0.00000000E+00
  0.00000000E+00  0.00000000E+00  0.00000000E+00
  0.00000000E+00  0.00000000E+00  0.00000000E+00
  0.00000000E+00  0.00000000E+00  0.00000000E+00
