MA-Pb-I                                 
   1.00000000000000     
     5.6267413476480952    0.0000416704727542    0.0620815770375229
    -0.0000317550626923    5.5940171136319288    0.0000254647194750
     0.0578866146782483   -0.0000342937909938    5.7648243532177101
   C    N    H    Pb   Cl
     1     1     6     1     3
Direct
  0.5220609721647508  0.5890127153913334  0.4694979926346693
  0.4917693116158857  0.3625662858543917  0.3392468154658493
  0.5053946663046774  0.5526827693118886  0.6575175169249422
  0.3819096157926744  0.7156118940258097  0.4185353212876854
  0.6995112072806512  0.6636220531290042  0.4284330501637236
  0.3277109558021100  0.2767754351322859  0.3753676754437316
  0.6282766648665477  0.2403310705741852  0.3749959579745005
  0.4986473603837601  0.3855028086601892  0.1600129433136449
  0.0086597493599790  0.0281751174283684  0.8685748774393943
  0.0060043188186084  0.0343579081342773  0.3726639982944720
  0.0103271027461166  0.5264468292244835 -0.1331829503172438
  0.5096098640685217  0.0313767773102587  0.8660092581495187
 
  0.00000000E+00  0.00000000E+00  0.00000000E+00
  0.00000000E+00  0.00000000E+00  0.00000000E+00
  0.00000000E+00  0.00000000E+00  0.00000000E+00
  0.00000000E+00  0.00000000E+00  0.00000000E+00
  0.00000000E+00  0.00000000E+00  0.00000000E+00
  0.00000000E+00  0.00000000E+00  0.00000000E+00
  0.00000000E+00  0.00000000E+00  0.00000000E+00
  0.00000000E+00  0.00000000E+00  0.00000000E+00
  0.00000000E+00  0.00000000E+00  0.00000000E+00
  0.00000000E+00  0.00000000E+00  0.00000000E+00
  0.00000000E+00  0.00000000E+00  0.00000000E+00
  0.00000000E+00  0.00000000E+00  0.00000000E+00
