MA-Pb-I                                 
   1.0000000000000000     
     6.2884187138843197    0.0009579558247489    0.0690993966769832
     0.0005978161223733    6.2287690412624563   -0.0003732067435118
     0.0697053521696059    0.0000445224912706    6.3737103126460282
   C    N    H    Pb   I 
     1     1     6     1     3
Direct
  0.4004204291507648  0.5218892298056040  0.5472063775063414 
  0.4820198667201340  0.3873431905745642  0.3751894703729963 
  0.3250418206792651  0.6590422477338982  0.4739209768693388 
  0.5346579852183697  0.5732859338694893  0.6493808346013684 
  0.2826272523650281  0.4305517854970363  0.6413844135956356 
  0.5955489445135860  0.4676608522573987  0.2812298074157978 
  0.3593569402970113  0.3339019575267603  0.2737932462108556 
  0.5560187543270381  0.2535044311738342  0.4329365777623524 
  0.1759960489482755  0.1844162416329965  0.2179237638645034 
  0.9094873486598019  0.9999820990246278  0.4751454839169895
  0.8992708791277906  0.4999580210910821  0.0236644354684188
  0.4323428768805755  0.9999948727175436  0.9224794036872126

  0.00000000E+00  0.00000000E+00  0.00000000E+00
  0.00000000E+00  0.00000000E+00  0.00000000E+00
  0.00000000E+00  0.00000000E+00  0.00000000E+00
  0.00000000E+00  0.00000000E+00  0.00000000E+00
  0.00000000E+00  0.00000000E+00  0.00000000E+00
  0.00000000E+00  0.00000000E+00  0.00000000E+00
  0.00000000E+00  0.00000000E+00  0.00000000E+00
  0.00000000E+00  0.00000000E+00  0.00000000E+00
  0.00000000E+00  0.00000000E+00  0.00000000E+00
  0.00000000E+00  0.00000000E+00  0.00000000E+00
  0.00000000E+00  0.00000000E+00  0.00000000E+00
  0.00000000E+00  0.00000000E+00  0.00000000E+00
