MA-Pb-I                                 
   1.0000000000000000     
     5.8857348584972646   -0.0000116429338373    0.0677019167604032
    -0.0000113721705701    5.8535748976198549   -0.0000048572736550
     0.0678468051824150   -0.0000044748208102    6.0066012361495211
   C    N    H    Pb   Br
     1     1     6     1     3
Direct
  0.3943319017382794  0.0034645155293378  0.1341979042447852 
  0.9241683181207472  0.0757127105226830  0.5557964441514618 
  0.2881546192489198  0.9823551064350393  0.9863318288636567 
  0.5470423463517229  0.6897660675902701  0.9137528677829373 
  0.9836421684197298  0.7263102688555785  0.3131151358137013 
  0.5857437797077729  0.1111704039482408  0.0046583713312465 
  0.0066981907718502  0.1487296459701167  0.4151087930463004 
  0.0240079461085021  0.1088647945740378  0.6936193663457314 
  0.5581423366264352  0.4558500512966309  0.5495751729112838 
  0.4343825501137815  0.4999407920523851  0.9818407606070920
  0.4217797225331665  0.9999416700962840  0.5296464633737443
  0.9610032600387797  0.4999434169907246  0.4296279775420402

  0.00000000E+00  0.00000000E+00  0.00000000E+00
  0.00000000E+00  0.00000000E+00  0.00000000E+00
  0.00000000E+00  0.00000000E+00  0.00000000E+00
  0.00000000E+00  0.00000000E+00  0.00000000E+00
  0.00000000E+00  0.00000000E+00  0.00000000E+00
  0.00000000E+00  0.00000000E+00  0.00000000E+00
  0.00000000E+00  0.00000000E+00  0.00000000E+00
  0.00000000E+00  0.00000000E+00  0.00000000E+00
  0.00000000E+00  0.00000000E+00  0.00000000E+00
  0.00000000E+00  0.00000000E+00  0.00000000E+00
  0.00000000E+00  0.00000000E+00  0.00000000E+00
  0.00000000E+00  0.00000000E+00  0.00000000E+00
