MA-Pb-I                                 
   1.00000000000000     
     5.8857348584972646   -0.0000116429338373    0.0677019167604032
    -0.0000113721705701    5.8535748976198549   -0.0000048572736550
     0.0678468051824150   -0.0000044748208102    6.0066012361495211
   C    N    H    Pb   Br
     1     1     6     1     3
Direct
  0.6680352053088601  0.2922360044715928  0.1303227389195527
  0.0949884130993112  0.8876457493563765  0.2638657966122186
  0.7754013233613624  0.3154253796641456  0.2771920250408721
  0.5884831013172915  0.1199846175135448  0.1268663610554907
  0.1692266286818476  0.0459718516093730  0.2633354178058024
  0.7616335675621475  0.3307089788459769  0.9713417987594045
 -0.0483945793054670  0.8942286015938214  0.1747412797624398
  0.0476100076546149  0.8570964636558808  0.4274144345462961
  0.4414124344595963  0.5202674268135163  0.6411292246618276
  0.4256298010832398  0.5243584190937401  0.1517137676854245
  0.4461890634581959  0.0252841018042200  0.6349878489360320
  0.9533786017814575  0.4876485565014423  0.6340709607307904
 
  0.00000000E+00  0.00000000E+00  0.00000000E+00
  0.00000000E+00  0.00000000E+00  0.00000000E+00
  0.00000000E+00  0.00000000E+00  0.00000000E+00
  0.00000000E+00  0.00000000E+00  0.00000000E+00
  0.00000000E+00  0.00000000E+00  0.00000000E+00
  0.00000000E+00  0.00000000E+00  0.00000000E+00
  0.00000000E+00  0.00000000E+00  0.00000000E+00
  0.00000000E+00  0.00000000E+00  0.00000000E+00
  0.00000000E+00  0.00000000E+00  0.00000000E+00
  0.00000000E+00  0.00000000E+00  0.00000000E+00
  0.00000000E+00  0.00000000E+00  0.00000000E+00
  0.00000000E+00  0.00000000E+00  0.00000000E+00
