MA-Pb-I                                 
   1.00000000000000     
     6.2884187138843197    0.0009579558247489    0.0690993966769832
     0.0005978161223733    6.2287690412624563   -0.0003732067435118
     0.0697053521696059    0.0000445224912706    6.3737103126460282
   C    N    H    Pb   I 
     1     1     6     1     3
Direct
  0.2441584325233598 -0.1293494122083783  0.6409050477884692
  0.4571906675073864  0.3264053542210713  0.4498829872385061
  0.2166830218003226  0.7049454838061164  0.7008958630854885
  0.8416802921839707 -0.1512008524758208  0.1550874356221916
  0.3988538809641374  0.8744718335134122  0.5422504557339072
  0.3433513150649642  0.2212348410305162  0.5107508720134432
  0.4297062775867002  0.4740202684659688  0.5130173378140441
  0.6066910193309658  0.2673988362870156  0.4869990998291387
  0.4787233549186281  0.3595105292896416 -0.9677296951966793
  0.9756400445639354  0.9245967037960646  0.4176407442913359
  0.9750768593561820  0.3800740157570106  0.0388573350114310
  0.5061677471180156  0.8705919458061494  0.0113698885019446
 
  0.00000000E+00  0.00000000E+00  0.00000000E+00
  0.00000000E+00  0.00000000E+00  0.00000000E+00
  0.00000000E+00  0.00000000E+00  0.00000000E+00
  0.00000000E+00  0.00000000E+00  0.00000000E+00
  0.00000000E+00  0.00000000E+00  0.00000000E+00
  0.00000000E+00  0.00000000E+00  0.00000000E+00
  0.00000000E+00  0.00000000E+00  0.00000000E+00
  0.00000000E+00  0.00000000E+00  0.00000000E+00
  0.00000000E+00  0.00000000E+00  0.00000000E+00
  0.00000000E+00  0.00000000E+00  0.00000000E+00
  0.00000000E+00  0.00000000E+00  0.00000000E+00
  0.00000000E+00  0.00000000E+00  0.00000000E+00
