MA-Pb-I                                 
   1.00000000000000     
     5.6267413476480952    0.0000416704727542    0.0620815770375229
    -0.0000317550626923    5.5940171136319288    0.0000254647194750
     0.0578866146782483   -0.0000342937909938    5.7648243532177101
   C    N    H    Pb   Cl
     1     1     6     1     3
Direct
  0.5829724309117521  0.5497911618950655  0.5763932775304862
  0.3569704526202183  0.5170107099228851  0.4509720750930776
  0.5516647686112640  0.5061164304363248  0.7618751894745857
  0.6435740028933763  0.7364898834698846  0.5581715669271962
  0.7178034437558088  0.4255254792859799  0.5035317216510024
  0.2293482772030997  0.6447089901237119  0.5043798850355512
  0.2801477701784343  0.3466040422803692  0.4764922082475316
  0.3764293867336643  0.5383829534830680  0.2713188533867377
  0.0333320300139805  0.0342131213349372  0.9831206359275062
  0.0349889926687004  0.0290735070340609  0.4849268828684494
  0.0358632495493154  0.5332565846872945 -0.0195370809558004
  0.5319956306586701  0.0382189145822769  0.9860730324358931
 
  0.00000000E+00  0.00000000E+00  0.00000000E+00
  0.00000000E+00  0.00000000E+00  0.00000000E+00
  0.00000000E+00  0.00000000E+00  0.00000000E+00
  0.00000000E+00  0.00000000E+00  0.00000000E+00
  0.00000000E+00  0.00000000E+00  0.00000000E+00
  0.00000000E+00  0.00000000E+00  0.00000000E+00
  0.00000000E+00  0.00000000E+00  0.00000000E+00
  0.00000000E+00  0.00000000E+00  0.00000000E+00
  0.00000000E+00  0.00000000E+00  0.00000000E+00
  0.00000000E+00  0.00000000E+00  0.00000000E+00
  0.00000000E+00  0.00000000E+00  0.00000000E+00
  0.00000000E+00  0.00000000E+00  0.00000000E+00
