MA-Pb-I                                 
   1.0000000000000000     
     5.6267413476480952    0.0000416704727542    0.0620815770375229
    -0.0000317550626923    5.5940171136319288    0.0000254647194750
     0.0578866146782483   -0.0000342937909938    5.7648243532177101
   C    N    H    Pb   Cl
     1     1     6     1     3
Direct
  0.6145389899757203  0.5406913832160106  0.5833657871598324 
  0.3769413866400890  0.5169472500532040  0.4813323576972552 
  0.6104127444384455  0.4579816287250217  0.7553816476540338 
  0.6594601400691218  0.7308769276287281  0.6016076656441638 
  0.7448089746747039  0.4494687303638038  0.4683475883513549 
  0.2473733241878449  0.6021989786158590  0.5855567449438067 
  0.3275150704757458  0.3379537761668026  0.4604270901039392 
  0.3670028165453738  0.5916409831445961  0.3172312662935359 
  0.1639409398735046  0.1715539625221988  0.8629301637518004 
  0.9135858188955126  0.0000223702692494  0.4744099460480626
  0.9004629834686284  0.5000248740275239  0.0232973215355017
  0.4490472465535831  0.0000309138028598  0.9238306684389244

  0.00000000E+00  0.00000000E+00  0.00000000E+00
  0.00000000E+00  0.00000000E+00  0.00000000E+00
  0.00000000E+00  0.00000000E+00  0.00000000E+00
  0.00000000E+00  0.00000000E+00  0.00000000E+00
  0.00000000E+00  0.00000000E+00  0.00000000E+00
  0.00000000E+00  0.00000000E+00  0.00000000E+00
  0.00000000E+00  0.00000000E+00  0.00000000E+00
  0.00000000E+00  0.00000000E+00  0.00000000E+00
  0.00000000E+00  0.00000000E+00  0.00000000E+00
  0.00000000E+00  0.00000000E+00  0.00000000E+00
  0.00000000E+00  0.00000000E+00  0.00000000E+00
  0.00000000E+00  0.00000000E+00  0.00000000E+00
