MA-Pb-I                                 
   1.00000000000000     
     6.2884187138843197    0.0009579558247489    0.0690993966769832
     0.0005978161223733    6.2287690412624563   -0.0003732067435118
     0.0697053521696059    0.0000445224912706    6.3737103126460282
   C    N    H    Pb   I 
     1     1     6     1     3
Direct
  0.5597736597209273  0.3765761845229081  0.4694311547738543
  0.4393939370597252  0.5781326192007413  0.4294942369869099
  0.5676306779444463  0.2798579898862066  0.3248956255655306
  0.4780530855473902  0.2860307375155775  0.5962403213171182
  0.7211319094874219  0.4186211665783405  0.5189730755621003
  0.2785022107910203  0.5529644040375296  0.4040994397753468
  0.4956551060634695  0.6612771074401912  0.2958334872485672
  0.4465373144841760  0.6836948381302566  0.5570735886941243
 -0.0121822161988237  0.9260866666445110  0.9472074407193375
 -0.0191434824826828 -0.0725618858526632  0.4461479819777018
 -0.0072566689453283  0.4293509985870697 -0.0511876047454868
  0.4897505989233600  0.9173154932706542  0.9431973744824063
 
  0.00000000E+00  0.00000000E+00  0.00000000E+00
  0.00000000E+00  0.00000000E+00  0.00000000E+00
  0.00000000E+00  0.00000000E+00  0.00000000E+00
  0.00000000E+00  0.00000000E+00  0.00000000E+00
  0.00000000E+00  0.00000000E+00  0.00000000E+00
  0.00000000E+00  0.00000000E+00  0.00000000E+00
  0.00000000E+00  0.00000000E+00  0.00000000E+00
  0.00000000E+00  0.00000000E+00  0.00000000E+00
  0.00000000E+00  0.00000000E+00  0.00000000E+00
  0.00000000E+00  0.00000000E+00  0.00000000E+00
  0.00000000E+00  0.00000000E+00  0.00000000E+00
  0.00000000E+00  0.00000000E+00  0.00000000E+00
