MA-Pb-I                                 
   1.0000000000000000     
     6.2884187138843197    0.0009579558247489    0.0690993966769832
     0.0005978161223733    6.2287690412624563   -0.0003732067435118
     0.0697053521696059    0.0000445224912706    6.3737103126460282
   C    N    H    Pb   I 
     1     1     6     1     3
Direct
  0.6170229416095327  0.3877357106196304  0.4542407058108160 
  0.4758196371172303  0.5732159544076787  0.4573434769754495 
  0.6237474219329695  0.3308969332862444  0.2911831403804133 
  0.5511023826038307  0.2628004014407052  0.5598182164418193 
  0.7775815411364687  0.4361478119275659  0.5086876366392118 
  0.3204153952834154  0.5345726909615628  0.4070999066788282 
  0.5326910379812643  0.6969910649336803  0.3592174408752808 
  0.4616516128386777  0.6360013093253463  0.6076120485156369 
  0.8367130572235381  0.6790494502256494  0.8149142269674347 
  0.9094873486598019  0.9999820990246278  0.4751454839169895
  0.8992708791277906  0.4999580210910821  0.0236644354684188
  0.4323428768805755  0.9999948727175436  0.9224794036872126

  0.00000000E+00  0.00000000E+00  0.00000000E+00
  0.00000000E+00  0.00000000E+00  0.00000000E+00
  0.00000000E+00  0.00000000E+00  0.00000000E+00
  0.00000000E+00  0.00000000E+00  0.00000000E+00
  0.00000000E+00  0.00000000E+00  0.00000000E+00
  0.00000000E+00  0.00000000E+00  0.00000000E+00
  0.00000000E+00  0.00000000E+00  0.00000000E+00
  0.00000000E+00  0.00000000E+00  0.00000000E+00
  0.00000000E+00  0.00000000E+00  0.00000000E+00
  0.00000000E+00  0.00000000E+00  0.00000000E+00
  0.00000000E+00  0.00000000E+00  0.00000000E+00
  0.00000000E+00  0.00000000E+00  0.00000000E+00
