MA-Pb-I                                 
   1.0000000000000000     
     5.8857348584972646   -0.0000116429338373    0.0677019167604032
    -0.0000113721705701    5.8535748976198549   -0.0000048572736550
     0.0678468051824150   -0.0000044748208102    6.0066012361495211
   C    N    H    Pb   Br
     1     1     6     1     3
Direct
  0.2118179145510499  0.0996191005698526  0.3465669831914234 
  0.3213588691907284  0.6733654316746912  0.8041434474087330 
  0.0468053051802340  0.0527595490436404  0.2820796208856970 
  0.0030622922055201  0.1918539617876020  0.7228858094305430 
  0.2844683985491597  0.0472295483829339  0.1079550469649918 
  0.9352360910287905  0.7545740725484377  0.5703071841785393 
  0.2244549289659232  0.6059328865339528  0.9383006169531865 
  0.4790699761901510  0.7049709954627311  0.8688772480271570 
  0.5393379471965445  0.5394266343859657  0.4976935020834959 
  0.4343825501137815  0.4999407920523851  0.9818407606070920
  0.4217797225331665  0.9999416700962840  0.5296464633737443
  0.9610032600387797  0.4999434169907246  0.4296279775420402

  0.00000000E+00  0.00000000E+00  0.00000000E+00
  0.00000000E+00  0.00000000E+00  0.00000000E+00
  0.00000000E+00  0.00000000E+00  0.00000000E+00
  0.00000000E+00  0.00000000E+00  0.00000000E+00
  0.00000000E+00  0.00000000E+00  0.00000000E+00
  0.00000000E+00  0.00000000E+00  0.00000000E+00
  0.00000000E+00  0.00000000E+00  0.00000000E+00
  0.00000000E+00  0.00000000E+00  0.00000000E+00
  0.00000000E+00  0.00000000E+00  0.00000000E+00
  0.00000000E+00  0.00000000E+00  0.00000000E+00
  0.00000000E+00  0.00000000E+00  0.00000000E+00
  0.00000000E+00  0.00000000E+00  0.00000000E+00
