MA-Pb-I                                 
   1.0000000000000000     
     5.6267413476480952    0.0000416704727542    0.0620815770375229
    -0.0000317550626923    5.5940171136319288    0.0000254647194750
     0.0578866146782483   -0.0000342937909938    5.7648243532177101
   C    N    H    Pb   Cl
     1     1     6     1     3
Direct
  0.6013238973005386  0.3185909766216171  0.4167471064409425 
  0.6308285020630465  0.5703561037140212  0.3604352535471017 
  0.7573942285769204  0.2635749180576018  0.5119451665425822 
  0.5845767481044359  0.2156436170813843  0.2504864937949816 
  0.4423493798892600  0.2946817582506998  0.5293369792304476 
  0.7804083939205020  0.6007105998296939  0.2526255905064265 
  0.6468588073114955  0.6749281990873776  0.5144688888983289 
  0.4889957642523142  0.6355075575627824  0.2696285374681004 
  0.2173069084249573  0.1486690141201712  0.5644966563732496 
  0.9135858188955126  0.0000223702692494  0.4744099460480626
  0.9004629834686284  0.5000248740275239  0.0232973215355017
  0.4490472465535831  0.0000309138028598  0.9238306684389244

  0.00000000E+00  0.00000000E+00  0.00000000E+00
  0.00000000E+00  0.00000000E+00  0.00000000E+00
  0.00000000E+00  0.00000000E+00  0.00000000E+00
  0.00000000E+00  0.00000000E+00  0.00000000E+00
  0.00000000E+00  0.00000000E+00  0.00000000E+00
  0.00000000E+00  0.00000000E+00  0.00000000E+00
  0.00000000E+00  0.00000000E+00  0.00000000E+00
  0.00000000E+00  0.00000000E+00  0.00000000E+00
  0.00000000E+00  0.00000000E+00  0.00000000E+00
  0.00000000E+00  0.00000000E+00  0.00000000E+00
  0.00000000E+00  0.00000000E+00  0.00000000E+00
  0.00000000E+00  0.00000000E+00  0.00000000E+00
