MA-Pb-I                                 
   1.0000000000000000     
     5.6267413476480952    0.0000416704727542    0.0620815770375229
    -0.0000317550626923    5.5940171136319288    0.0000254647194750
     0.0578866146782483   -0.0000342937909938    5.7648243532177101
   C    N    H    Pb   Cl
     1     1     6     1     3
Direct
  0.3958234765833422  0.5195054364154255  0.6074137282892696 
  0.6010242037726805  0.5297732334380656  0.4486231126860406 
  0.3627547147029318  0.3352241842159559  0.6447535559167009 
  0.2398942060220535  0.5987906468890367  0.5184129690661466 
  0.4367070463015923  0.6152218463412985  0.7738106331944070 
  0.5690305454736794  0.4409169980118227  0.2873796998531710 
  0.7538393178582862  0.4563430755092566  0.5271992378781185 
  0.6432999122697309  0.6998497026181917  0.4051046540639613 
  0.2595450850126881  0.8501250837769903  0.5526035330838406 
  0.9135858188955126  0.0000223702692494  0.4744099460480626
  0.9004629834686284  0.5000248740275239  0.0232973215355017
  0.4490472465535831  0.0000309138028598  0.9238306684389244

  0.00000000E+00  0.00000000E+00  0.00000000E+00
  0.00000000E+00  0.00000000E+00  0.00000000E+00
  0.00000000E+00  0.00000000E+00  0.00000000E+00
  0.00000000E+00  0.00000000E+00  0.00000000E+00
  0.00000000E+00  0.00000000E+00  0.00000000E+00
  0.00000000E+00  0.00000000E+00  0.00000000E+00
  0.00000000E+00  0.00000000E+00  0.00000000E+00
  0.00000000E+00  0.00000000E+00  0.00000000E+00
  0.00000000E+00  0.00000000E+00  0.00000000E+00
  0.00000000E+00  0.00000000E+00  0.00000000E+00
  0.00000000E+00  0.00000000E+00  0.00000000E+00
  0.00000000E+00  0.00000000E+00  0.00000000E+00
