MA-Pb-I                                 
   1.00000000000000     
     5.8892445321787328   -0.0048008041779134    0.0656571269169357
    -0.0053334077729528    5.8544884580747532    0.0012821621476484
     0.0639774282558244    0.0006908469467942    6.0230320529523143
   C    N    H    Pb   Br
     1     1     6     1     3
Direct
  0.0942746322569180  0.6855084227315411  0.4259104925760993
  0.0652953423853680  0.0639866881773186  0.9163687997947765
  0.0257965402696879  0.6355439988217765  0.2629650726646909
  0.0175908580421059  0.8432944276399046  0.4936648599928928
  0.2326910952322038  0.0147578180985434  0.9093743047640680
  0.8086647371988868  0.2886319941643449  0.5415185630075966
 -0.0338615323426778  0.9191634366918331 -0.0868489658514633
  0.0340728714289558  0.1438950014586706  0.0646064962742930
  0.5331195526434510  0.7012330196954787  0.4111739560140149
  0.5436306854540758  0.6986791819519277 -0.0878966143725207
  0.5656588943281317  0.1963933003101197  0.4107050840767469
  0.0484364610157420  0.4266601001895252  0.6322849020719309
 
  0.00000000E+00  0.00000000E+00  0.00000000E+00
  0.00000000E+00  0.00000000E+00  0.00000000E+00
  0.00000000E+00  0.00000000E+00  0.00000000E+00
  0.00000000E+00  0.00000000E+00  0.00000000E+00
  0.00000000E+00  0.00000000E+00  0.00000000E+00
  0.00000000E+00  0.00000000E+00  0.00000000E+00
  0.00000000E+00  0.00000000E+00  0.00000000E+00
  0.00000000E+00  0.00000000E+00  0.00000000E+00
  0.00000000E+00  0.00000000E+00  0.00000000E+00
  0.00000000E+00  0.00000000E+00  0.00000000E+00
  0.00000000E+00  0.00000000E+00  0.00000000E+00
  0.00000000E+00  0.00000000E+00  0.00000000E+00
