MA-Pb-I                                 
   1.00000000000000     
     5.8892445321787328   -0.0048008041779134    0.0656571269169357
    -0.0053334077729528    5.8544884580747532    0.0012821621476484
     0.0639774282558244    0.0006908469467942    6.0230320529523143
   C    N    H    Pb   Br
     1     1     6     1     3
Direct
  0.6227586349135954  0.9266217043667671  0.1525500429447297 
  0.9753166701036310  0.1637925861835584  0.0426840697674474 
  0.5567782097273476  0.8864961092667913  0.9868298728042217 
  0.9669399516923145  0.5196037539729861  0.2386930874834211 
  0.3416195225913077  0.9383600693498055  0.2345692980764954 
  0.4241159581713038  0.8255752631978094  0.0345210154672192 
  0.8093826479716363  0.2282339777596072  0.0293728619071584 
  0.0268921989933730  0.1953761468811190  0.2047112772629229 
  0.5677933312214261  0.4871720173061498  0.5655172286232968 
  0.4352272726238539  0.4972012503325617  0.9832769846011953
  0.4159970891092727  0.9985715009710078  0.5336351900357424
  0.9598885390497535  0.4995712578389358  0.4264000332832606
 
  0.00000000E+00  0.00000000E+00  0.00000000E+00
  0.00000000E+00  0.00000000E+00  0.00000000E+00
  0.00000000E+00  0.00000000E+00  0.00000000E+00
  0.00000000E+00  0.00000000E+00  0.00000000E+00
  0.00000000E+00  0.00000000E+00  0.00000000E+00
  0.00000000E+00  0.00000000E+00  0.00000000E+00
  0.00000000E+00  0.00000000E+00  0.00000000E+00
  0.00000000E+00  0.00000000E+00  0.00000000E+00
  0.00000000E+00  0.00000000E+00  0.00000000E+00
  0.00000000E+00  0.00000000E+00  0.00000000E+00
  0.00000000E+00  0.00000000E+00  0.00000000E+00
  0.00000000E+00  0.00000000E+00  0.00000000E+00
