MA-Pb-I                                 
   1.00000000000000     
     5.8892445321787328   -0.0048008041779134    0.0656571269169357
    -0.0053334077729528    5.8544884580747532    0.0012821621476484
     0.0639774282558244    0.0006908469467942    6.0230320529523143
   C    N    H    Pb   Br
     1     1     6     1     3
Direct
  0.6245992287551295  0.9332831216628487  0.0613437554081030
  0.8153294306794967  0.5475277871647637  0.7098906241294566
  0.4444202837076696 -0.0155708530935318  0.0084141519654208
  0.6608072431472195 -0.1523369531634275  0.4926947542737705
  0.0239629010776146  0.9628743913089114  0.0809624325110025
  0.1543139338190399 -0.0542924665070368  0.0717390188315476
  0.8090059342876448  0.6776916800080042  0.8185283720356679
  0.8659193197053165  0.6183140505910486  0.5575243103897847
  0.5369320072706130  0.5225634430412198  0.1412556407153949
  0.5012788264920111  0.5042275286055615  0.6723504032441133
  0.5503934879968284  0.0509375779860143  0.3899670838544874
  0.0724053603927767  0.5047503165536161  0.1652380839622949
 
  0.00000000E+00  0.00000000E+00  0.00000000E+00
  0.00000000E+00  0.00000000E+00  0.00000000E+00
  0.00000000E+00  0.00000000E+00  0.00000000E+00
  0.00000000E+00  0.00000000E+00  0.00000000E+00
  0.00000000E+00  0.00000000E+00  0.00000000E+00
  0.00000000E+00  0.00000000E+00  0.00000000E+00
  0.00000000E+00  0.00000000E+00  0.00000000E+00
  0.00000000E+00  0.00000000E+00  0.00000000E+00
  0.00000000E+00  0.00000000E+00  0.00000000E+00
  0.00000000E+00  0.00000000E+00  0.00000000E+00
  0.00000000E+00  0.00000000E+00  0.00000000E+00
  0.00000000E+00  0.00000000E+00  0.00000000E+00
