MA-Pb-I                                 
   1.00000000000000     
     5.8892445321787328   -0.0048008041779134    0.0656571269169357
    -0.0053334077729528    5.8544884580747532    0.0012821621476484
     0.0639774282558244    0.0006908469467942    6.0230320529523143
   C    N    H    Pb   Br
     1     1     6     1     3
Direct
  0.0135464164501349  0.5178262832463512  0.3951342944775358
  0.4528036587634342  0.9331944869169889  0.3510652591877715
 -0.0481257666795188  0.4327842401297464  0.5502010746797882
  0.2091820035749461  0.3787864248152321 -0.0177709364134259
  0.7513997308472594  0.0417464097003902  0.9479889446560695
  0.9220126433452585  0.6762738920040745  0.3503946119933817
  0.3182836319123669 -0.0114003745947955  0.4502455476927116
  0.3961357825925922  0.9526523054563112  0.1904740392071100
  0.4406138525586124  0.5303894858713217  0.3959671152484468
  0.4341567877284397  0.5173811119986197  0.8976218142744202
  0.7024670095869836  0.0144860771164530  0.7114940994953237
 -0.0505622034885113  0.2993350838030806  0.1586486588597750
 
  0.00000000E+00  0.00000000E+00  0.00000000E+00
  0.00000000E+00  0.00000000E+00  0.00000000E+00
  0.00000000E+00  0.00000000E+00  0.00000000E+00
  0.00000000E+00  0.00000000E+00  0.00000000E+00
  0.00000000E+00  0.00000000E+00  0.00000000E+00
  0.00000000E+00  0.00000000E+00  0.00000000E+00
  0.00000000E+00  0.00000000E+00  0.00000000E+00
  0.00000000E+00  0.00000000E+00  0.00000000E+00
  0.00000000E+00  0.00000000E+00  0.00000000E+00
  0.00000000E+00  0.00000000E+00  0.00000000E+00
  0.00000000E+00  0.00000000E+00  0.00000000E+00
  0.00000000E+00  0.00000000E+00  0.00000000E+00
