MA-Pb-I                                 
   1.00000000000000     
     6.2884187138843197    0.0009579558247489    0.0690993966769832
     0.0005978161223733    6.2287690412624563   -0.0003732067435118
     0.0697053521696059    0.0000445224912706    6.3737103126460282
   C    N    H    Pb   I 
     1     1     6     1     3
Direct
  0.4587453680781228  0.5383862331029515  0.4187321171881868
  0.3949412912582230  0.4665667779117184  0.6336983762398741
  0.4046623241800580  0.7063616555099870  0.3961772212684204
  0.3841733456678492  0.4331483217008789  0.3023742009999812
  0.6347744905933878  0.5313451366647268  0.4011317384510986
  0.2290716773214419  0.4707309734820123  0.6624475316239026
  0.4586155407356179  0.5691788375653093  0.7466704885586590
  0.4424406108644062  0.3098208757564387  0.6684106411738854
  0.9330771201283208  0.9552325612883363  0.9614133340669486
  0.9356906588073448 -0.0519717839337059  0.4634641067687465
  0.9285801055508012  0.4569712707871055 -0.0400860423907008
  0.4337101248610875  0.9571338047495458  0.9553447308292711
 
  0.00000000E+00  0.00000000E+00  0.00000000E+00
  0.00000000E+00  0.00000000E+00  0.00000000E+00
  0.00000000E+00  0.00000000E+00  0.00000000E+00
  0.00000000E+00  0.00000000E+00  0.00000000E+00
  0.00000000E+00  0.00000000E+00  0.00000000E+00
  0.00000000E+00  0.00000000E+00  0.00000000E+00
  0.00000000E+00  0.00000000E+00  0.00000000E+00
  0.00000000E+00  0.00000000E+00  0.00000000E+00
  0.00000000E+00  0.00000000E+00  0.00000000E+00
  0.00000000E+00  0.00000000E+00  0.00000000E+00
  0.00000000E+00  0.00000000E+00  0.00000000E+00
  0.00000000E+00  0.00000000E+00  0.00000000E+00
