MA-Pb-I                                 
   1.00000000000000     
     5.8892445321787328   -0.0048008041779134    0.0656571269169357
    -0.0053334077729528    5.8544884580747532    0.0012821621476484
     0.0639774282558244    0.0006908469467942    6.0230320529523143
   C    N    H    Pb   Br
     1     1     6     1     3
Direct
  0.1101994307703388  0.9065608154838476  0.0898243026184378 
  0.4667928238075168  0.0548510680637109  0.9659022293377315 
  0.2658111715984078  0.9629398406147693  0.0121516155075310 
  0.1143059789882379  0.3772333506262190  0.5167249515146074 
  0.8802941063980424  0.0278672364146404  0.5293739654345797 
  0.8400235335483803  0.2797155104772436  0.0072407895183852 
  0.5999063876709272  0.9486465134652875  0.0194312177644807 
  0.3257484215072318  0.0029172976682832  0.0514576647445208 
  0.4447749579462052  0.5103838622530145  0.4629683372003207 
  0.4352272726238539  0.4972012503325617  0.9832769846011953
  0.4159970891092727  0.9985715009710078  0.5336351900357424
  0.9598885390497535  0.4995712578389358  0.4264000332832606
 
  0.00000000E+00  0.00000000E+00  0.00000000E+00
  0.00000000E+00  0.00000000E+00  0.00000000E+00
  0.00000000E+00  0.00000000E+00  0.00000000E+00
  0.00000000E+00  0.00000000E+00  0.00000000E+00
  0.00000000E+00  0.00000000E+00  0.00000000E+00
  0.00000000E+00  0.00000000E+00  0.00000000E+00
  0.00000000E+00  0.00000000E+00  0.00000000E+00
  0.00000000E+00  0.00000000E+00  0.00000000E+00
  0.00000000E+00  0.00000000E+00  0.00000000E+00
  0.00000000E+00  0.00000000E+00  0.00000000E+00
  0.00000000E+00  0.00000000E+00  0.00000000E+00
  0.00000000E+00  0.00000000E+00  0.00000000E+00
