MA-Pb-I                                 
   1.00000000000000     
     5.8892445321787328   -0.0048008041779134    0.0656571269169357
    -0.0053334077729528    5.8544884580747532    0.0012821621476484
     0.0639774282558244    0.0006908469467942    6.0230320529523143
   C    N    H    Pb   Br
     1     1     6     1     3
Direct
  0.9236482775224679  0.0483240662475031  0.6792701253208335 
  0.3025887972631208  0.1783991596971939  0.1987558832767118 
  0.7545976306356730  0.0362114292986060  0.7478399254852242 
  0.8005137049674158  0.5732616487887683  0.3190690385482612 
  0.0409321950209143  0.7716249299007383  0.9363995543575374 
  0.9386259460121575  0.0149611004656559  0.4354314335240143 
  0.1851432991627942  0.2182836531600573  0.0703823538361150 
  0.4595489079367118  0.2026735644343539  0.1303113846857689 
  0.4380161672170640  0.4168834917893449  0.5140744310524128 
  0.4352272726238539  0.4972012503325617  0.9832769846011953
  0.4159970891092727  0.9985715009710078  0.5336351900357424
  0.9598885390497535  0.4995712578389358  0.4264000332832606
 
  0.00000000E+00  0.00000000E+00  0.00000000E+00
  0.00000000E+00  0.00000000E+00  0.00000000E+00
  0.00000000E+00  0.00000000E+00  0.00000000E+00
  0.00000000E+00  0.00000000E+00  0.00000000E+00
  0.00000000E+00  0.00000000E+00  0.00000000E+00
  0.00000000E+00  0.00000000E+00  0.00000000E+00
  0.00000000E+00  0.00000000E+00  0.00000000E+00
  0.00000000E+00  0.00000000E+00  0.00000000E+00
  0.00000000E+00  0.00000000E+00  0.00000000E+00
  0.00000000E+00  0.00000000E+00  0.00000000E+00
  0.00000000E+00  0.00000000E+00  0.00000000E+00
  0.00000000E+00  0.00000000E+00  0.00000000E+00
