MA-Pb-I                                 
   1.00000000000000     
     5.8857348584972646   -0.0000116429338373    0.0677019167604032
    -0.0000113721705701    5.8535748976198549   -0.0000048572736550
     0.0678468051824150   -0.0000044748208102    6.0066012361495211
   C    N    H    Pb   Br
     1     1     6     1     3
Direct
 -0.0911715924746428  0.7009383326753865  0.2582675407428161
  0.1020910569750345  0.1421763766815078  0.8691413207639861
 -0.0751399520290283  0.6481902832676993  0.0775567663033374
  0.2453286512463204  0.2349686931474697  0.9177301548038833
  0.0616577859793161  0.8105044804737175 -0.7006280458401737
 -0.0270754396910450  0.2625065738487071  0.8644338820797273
  0.0717889703186579  0.0055094150214931  0.9749093805740645
  0.1436317221400543  0.0818517395111258  0.7086393712195673
  0.5006333793211249  0.5282594484270312  0.3833081213175181
  0.4955385686538629  0.5272639725257821  0.8776196073676978
  0.4507747501966264  0.0188263712777196  0.4093168694199087
 -0.0106493736283985  0.4012712493979538  0.4102479606497013
 
  0.00000000E+00  0.00000000E+00  0.00000000E+00
  0.00000000E+00  0.00000000E+00  0.00000000E+00
  0.00000000E+00  0.00000000E+00  0.00000000E+00
  0.00000000E+00  0.00000000E+00  0.00000000E+00
  0.00000000E+00  0.00000000E+00  0.00000000E+00
  0.00000000E+00  0.00000000E+00  0.00000000E+00
  0.00000000E+00  0.00000000E+00  0.00000000E+00
  0.00000000E+00  0.00000000E+00  0.00000000E+00
  0.00000000E+00  0.00000000E+00  0.00000000E+00
  0.00000000E+00  0.00000000E+00  0.00000000E+00
  0.00000000E+00  0.00000000E+00  0.00000000E+00
  0.00000000E+00  0.00000000E+00  0.00000000E+00
