MA-Pb-I                                 
   1.00000000000000     
     5.8892445321787328   -0.0048008041779134    0.0656571269169357
    -0.0053334077729528    5.8544884580747532    0.0012821621476484
     0.0639774282558244    0.0006908469467942    6.0230320529523143
   C    N    H    Pb   Br
     1     1     6     1     3
Direct
 -0.0504949784779508  0.9153677182742149  0.9341494975373654
  0.7082333627983081 -0.0603620150142246  0.0028172056798709
  0.0417327514037818  0.0722453852034833  0.9782388462600329
  0.0208514113499135  0.7654648218538174  0.0201724831625061
 -0.0376882878799827  0.8893732497244468  0.7533925621361258
  0.6827003000896986 -0.0389816495276403  0.1750075577149549
  0.6285840883774170  0.0808828760388813  0.9310153771598428
  0.6119080868864247  0.7928714354740402 -0.0360436202767977
  0.3787921623083028  0.4559378389925224  0.4456715672907844
  0.3852469075006784  0.4508742929435984  0.9459581381189752
  0.3794448697981103  0.9563189483110426  0.4536359179033026
 -0.1230734896343311  0.4591346853583411  0.4366321857480847
 
  0.00000000E+00  0.00000000E+00  0.00000000E+00
  0.00000000E+00  0.00000000E+00  0.00000000E+00
  0.00000000E+00  0.00000000E+00  0.00000000E+00
  0.00000000E+00  0.00000000E+00  0.00000000E+00
  0.00000000E+00  0.00000000E+00  0.00000000E+00
  0.00000000E+00  0.00000000E+00  0.00000000E+00
  0.00000000E+00  0.00000000E+00  0.00000000E+00
  0.00000000E+00  0.00000000E+00  0.00000000E+00
  0.00000000E+00  0.00000000E+00  0.00000000E+00
  0.00000000E+00  0.00000000E+00  0.00000000E+00
  0.00000000E+00  0.00000000E+00  0.00000000E+00
  0.00000000E+00  0.00000000E+00  0.00000000E+00
