MA-Pb-I                                 
   1.0000000000000000     
     5.6267413476480952    0.0000416704727542    0.0620815770375229
    -0.0000317550626923    5.5940171136319288    0.0000254647194750
     0.0578866146782483   -0.0000342937909938    5.7648243532177101
   C    N    H    Pb   Cl
     1     1     6     1     3
Direct
  0.6335654670003086  0.3372159329888718  0.6504644146627566 
  0.5431007730792731  0.4878666808255849  0.4592898425345672 
  0.8144022401308423  0.2939367592417975  0.6071936363561379 
  0.5262390075825331  0.1732450251047372  0.6612249739609523 
  0.6270537982397062  0.4355315657933512  0.8202073434704718 
  0.5457559002159795  0.4003163782074701  0.2942251348020152 
  0.6404239602449312  0.6466048589637250  0.4435087564518539 
  0.3715572122070553  0.5363800791435877  0.4880362170097273 
  0.2909322338918825  0.1825969130368035  0.4884088941440619 
  0.9135858188955126  0.0000223702692494  0.4744099460480626
  0.9004629834686284  0.5000248740275239  0.0232973215355017
  0.4490472465535831  0.0000309138028598  0.9238306684389244

  0.00000000E+00  0.00000000E+00  0.00000000E+00
  0.00000000E+00  0.00000000E+00  0.00000000E+00
  0.00000000E+00  0.00000000E+00  0.00000000E+00
  0.00000000E+00  0.00000000E+00  0.00000000E+00
  0.00000000E+00  0.00000000E+00  0.00000000E+00
  0.00000000E+00  0.00000000E+00  0.00000000E+00
  0.00000000E+00  0.00000000E+00  0.00000000E+00
  0.00000000E+00  0.00000000E+00  0.00000000E+00
  0.00000000E+00  0.00000000E+00  0.00000000E+00
  0.00000000E+00  0.00000000E+00  0.00000000E+00
  0.00000000E+00  0.00000000E+00  0.00000000E+00
  0.00000000E+00  0.00000000E+00  0.00000000E+00
