MA-Pb-I                                 
   1.0000000000000000     
     5.6267413476480952    0.0000416704727542    0.0620815770375229
    -0.0000317550626923    5.5940171136319288    0.0000254647194750
     0.0578866146782483   -0.0000342937909938    5.7648243532177101
   C    N    H    Pb   Cl
     1     1     6     1     3
Direct
  0.6151866542095253  0.3463004722501902  0.4213924438207877 
  0.4408506134052200  0.5118647002639242  0.5194875862962423 
  0.5774457433536470  0.3287248307487772  0.2350752247417758 
  0.5973990668147433  0.1720829189686279  0.5100099535080486 
  0.7958781097680894  0.4186821474639733  0.4465423612239918 
  0.2659983020598811  0.4490234306792528  0.4995851497205944 
  0.4523696777704570  0.6805819305389239  0.4399862529669837 
  0.4654847458979492  0.5376006034943291  0.6965127820729833 
  0.5476510719395177  0.1653444186049065  0.8491008546041894 
  0.9135858188955126  0.0000223702692494  0.4744099460480626
  0.9004629834686284  0.5000248740275239  0.0232973215355017
  0.4490472465535831  0.0000309138028598  0.9238306684389244

  0.00000000E+00  0.00000000E+00  0.00000000E+00
  0.00000000E+00  0.00000000E+00  0.00000000E+00
  0.00000000E+00  0.00000000E+00  0.00000000E+00
  0.00000000E+00  0.00000000E+00  0.00000000E+00
  0.00000000E+00  0.00000000E+00  0.00000000E+00
  0.00000000E+00  0.00000000E+00  0.00000000E+00
  0.00000000E+00  0.00000000E+00  0.00000000E+00
  0.00000000E+00  0.00000000E+00  0.00000000E+00
  0.00000000E+00  0.00000000E+00  0.00000000E+00
  0.00000000E+00  0.00000000E+00  0.00000000E+00
  0.00000000E+00  0.00000000E+00  0.00000000E+00
  0.00000000E+00  0.00000000E+00  0.00000000E+00
