MA-Pb-I                                 
   1.00000000000000     
     6.2884187138843197    0.0009579558247489    0.0690993966769832
     0.0005978161223733    6.2287690412624563   -0.0003732067435118
     0.0697053521696059    0.0000445224912706    6.3737103126460282
   C    N    H    Pb   I 
     1     1     6     1     3
Direct
  0.4805231487112016  0.5218656338244669  0.4796441320038491
  0.6684335594825912  0.4889868127253090  0.6181938504366781
  0.3736928602069053  0.3814966062103839  0.4914876877868335
  0.5404702800066997  0.5411901821653922  0.3158678621156231
  0.3921758494215257  0.6666483430701087  0.5304689064557788
  0.7548911798046657  0.3506013773518753  0.5861470703025071
  0.6208875629936916  0.4782636716645706  0.7756304774384655
  0.7718190376133771  0.6172898581377462  0.6081929767673836
  0.0781717736576741  0.0427628277770254  0.1676022559727021
  0.5878028727916149  0.0418331041520345  0.1940733946490462
  0.0722496044986067  0.5437753853902044  0.1535130662695162
  0.0606109475335618  0.0393501556145026  0.6568170030437597
 
  0.00000000E+00  0.00000000E+00  0.00000000E+00
  0.00000000E+00  0.00000000E+00  0.00000000E+00
  0.00000000E+00  0.00000000E+00  0.00000000E+00
  0.00000000E+00  0.00000000E+00  0.00000000E+00
  0.00000000E+00  0.00000000E+00  0.00000000E+00
  0.00000000E+00  0.00000000E+00  0.00000000E+00
  0.00000000E+00  0.00000000E+00  0.00000000E+00
  0.00000000E+00  0.00000000E+00  0.00000000E+00
  0.00000000E+00  0.00000000E+00  0.00000000E+00
  0.00000000E+00  0.00000000E+00  0.00000000E+00
  0.00000000E+00  0.00000000E+00  0.00000000E+00
  0.00000000E+00  0.00000000E+00  0.00000000E+00
