MA-Pb-I                                 
   1.0000000000000000     
     6.2884187138843197    0.0009579558247489    0.0690993966769832
     0.0005978161223733    6.2287690412624563   -0.0003732067435118
     0.0697053521696059    0.0000445224912706    6.3737103126460282
   C    N    H    Pb   I 
     1     1     6     1     3
Direct
  0.4317798929177716  0.4759517167296391  0.3767876856150588 
  0.5575954835351494  0.5857516196896828  0.5394693984523816 
  0.4264412781735164  0.3087245085801523  0.4200334361069307 
  0.5096365676782144  0.4960066630824057  0.2198255893869190 
  0.2689468002348484  0.5435153294226032  0.3739937853085714 
  0.7145871080764656  0.5269663044363503  0.5476003934901983 
  0.4889975369101945  0.5714978726651323  0.6920292411282744 
  0.5696195473870548  0.7458789507190862  0.5088420080524680 
  0.1930233571407221  0.9598359999253085  0.4777678226287139 
  0.9094873486598019  0.9999820990246278  0.4751454839169895
  0.8992708791277906  0.4999580210910821  0.0236644354684188
  0.4323428768805755  0.9999948727175436  0.9224794036872126

  0.00000000E+00  0.00000000E+00  0.00000000E+00
  0.00000000E+00  0.00000000E+00  0.00000000E+00
  0.00000000E+00  0.00000000E+00  0.00000000E+00
  0.00000000E+00  0.00000000E+00  0.00000000E+00
  0.00000000E+00  0.00000000E+00  0.00000000E+00
  0.00000000E+00  0.00000000E+00  0.00000000E+00
  0.00000000E+00  0.00000000E+00  0.00000000E+00
  0.00000000E+00  0.00000000E+00  0.00000000E+00
  0.00000000E+00  0.00000000E+00  0.00000000E+00
  0.00000000E+00  0.00000000E+00  0.00000000E+00
  0.00000000E+00  0.00000000E+00  0.00000000E+00
  0.00000000E+00  0.00000000E+00  0.00000000E+00
