MA-Pb-I                                 
   1.00000000000000     
     5.8892445321787328   -0.0048008041779134    0.0656571269169357
    -0.0053334077729528    5.8544884580747532    0.0012821621476484
     0.0639774282558244    0.0006908469467942    6.0230320529523143
   C    N    H    Pb   Br
     1     1     6     1     3
Direct
  0.1274434439581072  0.0686059789088991  0.1141005009697234 
  0.7802860500788499  0.1449412381725006  0.4517751546550194 
  0.0348367764770194  0.0521961353040219  0.9573160092232664 
  0.3926614988189855  0.8462702755378269  0.8905455942145740 
  0.8014076589608257  0.8136279815470777  0.2477561552265088 
  0.4746006643432696  0.2691009840290485  0.9574506197449574 
  0.8665337837481994  0.2349400818602516  0.3240038062406448 
  0.8668993147001725  0.1739808209813213  0.5986261590005851 
  0.3767284483436775  0.5736700479220843  0.5184993140642106 
  0.4352272726238539  0.4972012503325617  0.9832769846011953
  0.4159970891092727  0.9985715009710078  0.5336351900357424
  0.9598885390497535  0.4995712578389358  0.4264000332832606
 
  0.00000000E+00  0.00000000E+00  0.00000000E+00
  0.00000000E+00  0.00000000E+00  0.00000000E+00
  0.00000000E+00  0.00000000E+00  0.00000000E+00
  0.00000000E+00  0.00000000E+00  0.00000000E+00
  0.00000000E+00  0.00000000E+00  0.00000000E+00
  0.00000000E+00  0.00000000E+00  0.00000000E+00
  0.00000000E+00  0.00000000E+00  0.00000000E+00
  0.00000000E+00  0.00000000E+00  0.00000000E+00
  0.00000000E+00  0.00000000E+00  0.00000000E+00
  0.00000000E+00  0.00000000E+00  0.00000000E+00
  0.00000000E+00  0.00000000E+00  0.00000000E+00
  0.00000000E+00  0.00000000E+00  0.00000000E+00
