MA-Pb-I                                 
   1.0000000000000000     
     5.8857348584972646   -0.0000116429338373    0.0677019167604032
    -0.0000113721705701    5.8535748976198549   -0.0000048572736550
     0.0678468051824150   -0.0000044748208102    6.0066012361495211
   C    N    H    Pb   Br
     1     1     6     1     3
Direct
  0.0560224877141545  0.8555144249762702  0.6164488160299944 
  0.0154128439003218  0.9476645811937561  0.1454028000244358 
  0.0425439227030398  0.0256993403678395  0.6830747987706551 
  0.8348346944577739  0.8309776145175246  0.8469621467397666 
  0.1453875399238067  0.7901445549482355  0.8117379701301803 
  0.8616997222974332  0.0191547776850256  0.2916224497560638 
  0.1531078833786561  0.9771891598162045  0.2554211770150839 
  0.0277824652126241  0.7822392090973755  0.0949685992157251 
  0.5343947919601435  0.4672376577862550  0.3606093683721938 
  0.4343825501137815  0.4999407920523851  0.9818407606070920
  0.4217797225331665  0.9999416700962840  0.5296464633737443
  0.9610032600387797  0.4999434169907246  0.4296279775420402

  0.00000000E+00  0.00000000E+00  0.00000000E+00
  0.00000000E+00  0.00000000E+00  0.00000000E+00
  0.00000000E+00  0.00000000E+00  0.00000000E+00
  0.00000000E+00  0.00000000E+00  0.00000000E+00
  0.00000000E+00  0.00000000E+00  0.00000000E+00
  0.00000000E+00  0.00000000E+00  0.00000000E+00
  0.00000000E+00  0.00000000E+00  0.00000000E+00
  0.00000000E+00  0.00000000E+00  0.00000000E+00
  0.00000000E+00  0.00000000E+00  0.00000000E+00
  0.00000000E+00  0.00000000E+00  0.00000000E+00
  0.00000000E+00  0.00000000E+00  0.00000000E+00
  0.00000000E+00  0.00000000E+00  0.00000000E+00
