MA-Pb-I                                 
   1.0000000000000000     
     6.2884187138843197    0.0009579558247489    0.0690993966769832
     0.0005978161223733    6.2287690412624563   -0.0003732067435118
     0.0697053521696059    0.0000445224912706    6.3737103126460282
   C    N    H    Pb   I 
     1     1     6     1     3
Direct
  0.4902746842432889  0.3982034949230056  0.4746232408015292 
  0.4161066208034326  0.6015226654030235  0.5612911962696179 
  0.6375240668793913  0.4291385490493924  0.3896274960377542 
  0.3684135322785138  0.3341513368594171  0.3644046261327147 
  0.5188383064975419  0.2855813693877975  0.6072416408649484 
  0.3861507172211873  0.7140308295486449  0.4404079741624397 
  0.5271064187865439  0.6684581854984768  0.6679778129558398 
  0.2763743421268477  0.5845272029959172  0.6444141284258010 
  0.7932997309494678  0.9776381371927036  0.4265190909170877 
  0.9094873486598019  0.9999820990246278  0.4751454839169895
  0.8992708791277906  0.4999580210910821  0.0236644354684188
  0.4323428768805755  0.9999948727175436  0.9224794036872126

  0.00000000E+00  0.00000000E+00  0.00000000E+00
  0.00000000E+00  0.00000000E+00  0.00000000E+00
  0.00000000E+00  0.00000000E+00  0.00000000E+00
  0.00000000E+00  0.00000000E+00  0.00000000E+00
  0.00000000E+00  0.00000000E+00  0.00000000E+00
  0.00000000E+00  0.00000000E+00  0.00000000E+00
  0.00000000E+00  0.00000000E+00  0.00000000E+00
  0.00000000E+00  0.00000000E+00  0.00000000E+00
  0.00000000E+00  0.00000000E+00  0.00000000E+00
  0.00000000E+00  0.00000000E+00  0.00000000E+00
  0.00000000E+00  0.00000000E+00  0.00000000E+00
  0.00000000E+00  0.00000000E+00  0.00000000E+00
