MA-Pb-I                                 
   1.0000000000000000     
     5.8857348584972646   -0.0000116429338373    0.0677019167604032
    -0.0000113721705701    5.8535748976198549   -0.0000048572736550
     0.0678468051824150   -0.0000044748208102    6.0066012361495211
   C    N    H    Pb   Br
     1     1     6     1     3
Direct
  0.9845520938166408  0.9924062147779871  0.4616234177950889 
  0.1131921895131802  0.2550888655212382  0.7327226901583301 
  0.1466112927415980  0.9720535782486035  0.3785199584937021 
  0.7932133311049008  0.7176263512393735  0.8048616343940413 
  0.8667425242124118  0.0967210096206542  0.1003535543798443 
  0.0329119378700133  0.9792401804351822  0.2724483491250255 
  0.1084840704231560  0.3410931760218625  0.5761444026936375 
  0.9542520206119580  0.2686009213393703  0.8006757396341829 
  0.5360212074807928  0.5945768008321473  0.4195330391720820 
  0.4343825501137815  0.4999407920523851  0.9818407606070920
  0.4217797225331665  0.9999416700962840  0.5296464633737443
  0.9610032600387797  0.4999434169907246  0.4296279775420402

  0.00000000E+00  0.00000000E+00  0.00000000E+00
  0.00000000E+00  0.00000000E+00  0.00000000E+00
  0.00000000E+00  0.00000000E+00  0.00000000E+00
  0.00000000E+00  0.00000000E+00  0.00000000E+00
  0.00000000E+00  0.00000000E+00  0.00000000E+00
  0.00000000E+00  0.00000000E+00  0.00000000E+00
  0.00000000E+00  0.00000000E+00  0.00000000E+00
  0.00000000E+00  0.00000000E+00  0.00000000E+00
  0.00000000E+00  0.00000000E+00  0.00000000E+00
  0.00000000E+00  0.00000000E+00  0.00000000E+00
  0.00000000E+00  0.00000000E+00  0.00000000E+00
  0.00000000E+00  0.00000000E+00  0.00000000E+00
