MA-Pb-I                                 
   1.00000000000000     
     5.8892445321787328   -0.0048008041779134    0.0656571269169357
    -0.0053334077729528    5.8544884580747532    0.0012821621476484
     0.0639774282558244    0.0006908469467942    6.0230320529523143
   C    N    H    Pb   Br
     1     1     6     1     3
Direct
  0.0424624897133024  0.0183333897192122  0.0410018383736491
  0.1641385267872895  0.2062925156979929  0.9510582813227513
 -0.1423578493276071  0.0505019554477008  0.0651731955579770
  0.1033741894607153 -0.0410329792444815  0.2189154373262050
  0.1015629504838759  0.7787275680245198  0.3517178080813977
  0.0645040011940725  0.8640441602355996 -0.0655006076006225
  0.1585889334364326  0.3530649352368844  0.0465542346767191
  0.3314670235799936  0.1751535115030989 -0.0928324758822160
  0.6032130630932018  0.5725917666560475  0.5114203112627094
  0.6018909953621763  0.5792393772291720  0.0161711372573539
  0.5990267144488534  0.0709479388128081  0.5050249467449065
  0.1057536141752506  0.5677129585656064  0.5157938599640377
 
  0.00000000E+00  0.00000000E+00  0.00000000E+00
  0.00000000E+00  0.00000000E+00  0.00000000E+00
  0.00000000E+00  0.00000000E+00  0.00000000E+00
  0.00000000E+00  0.00000000E+00  0.00000000E+00
  0.00000000E+00  0.00000000E+00  0.00000000E+00
  0.00000000E+00  0.00000000E+00  0.00000000E+00
  0.00000000E+00  0.00000000E+00  0.00000000E+00
  0.00000000E+00  0.00000000E+00  0.00000000E+00
  0.00000000E+00  0.00000000E+00  0.00000000E+00
  0.00000000E+00  0.00000000E+00  0.00000000E+00
  0.00000000E+00  0.00000000E+00  0.00000000E+00
  0.00000000E+00  0.00000000E+00  0.00000000E+00
