MA-Pb-I                                 
   1.00000000000000     
     5.6267413476480952    0.0000416704727542    0.0620815770375229
    -0.0000317550626923    5.5940171136319288    0.0000254647194750
     0.0578866146782483   -0.0000342937909938    5.7648243532177101
   C    N    H    Pb   Cl
     1     1     6     1     3
Direct
  0.5888999279854675  0.4460696057329266  0.3073449515318692
  0.4906455355491173  0.5282646004301196  0.5343338812357907
  0.4885624126315929  0.5314232663740908  0.1675532626343343
  0.5724743922625956  0.2501529906149811  0.2955484555905489
  0.7778385278708967  0.4972063519515507  0.2930201661059041
  0.3115540401162685  0.4855535098524047  0.5640917754457744
  0.5037586971128610  0.7134973348320669  0.5609689519618023
  0.5857935870362250  0.4512235253418675  0.6699688518513837
  0.9950457789753876 -0.0132176708702509  0.8570450113490391
  0.9896848555285822 -0.0191596629489075  0.3593530081787508
  0.9953530681609833  0.4854529128661593 -0.1501523139724149
  0.4973980400361080 -0.0070849959281114  0.8549259158268966
 
  0.00000000E+00  0.00000000E+00  0.00000000E+00
  0.00000000E+00  0.00000000E+00  0.00000000E+00
  0.00000000E+00  0.00000000E+00  0.00000000E+00
  0.00000000E+00  0.00000000E+00  0.00000000E+00
  0.00000000E+00  0.00000000E+00  0.00000000E+00
  0.00000000E+00  0.00000000E+00  0.00000000E+00
  0.00000000E+00  0.00000000E+00  0.00000000E+00
  0.00000000E+00  0.00000000E+00  0.00000000E+00
  0.00000000E+00  0.00000000E+00  0.00000000E+00
  0.00000000E+00  0.00000000E+00  0.00000000E+00
  0.00000000E+00  0.00000000E+00  0.00000000E+00
  0.00000000E+00  0.00000000E+00  0.00000000E+00
