MA-Pb-I                                 
   1.0000000000000000     
     5.6267413476480952    0.0000416704727542    0.0620815770375229
    -0.0000317550626923    5.5940171136319288    0.0000254647194750
     0.0578866146782483   -0.0000342937909938    5.7648243532177101
   C    N    H    Pb   Cl
     1     1     6     1     3
Direct
  0.6551091359531593  0.4221950222337261  0.2645482886652566 
  0.5377638014509821  0.5242607842180396  0.4724902959642087 
  0.5429150988415259  0.4567940568443978  0.1140066316650859 
  0.6760123933630237  0.2286267935536198  0.2893598149225383 
  0.8297590435903662  0.5080151993700029  0.2389878832962624 
  0.3706121002865229  0.4466599502546352  0.5034238100465083 
  0.5149786176085822  0.7090081774961250  0.4561229287089611 
  0.6341662248842833  0.4983415717335047  0.6229624339795755 
  0.7725963983699163  0.0554020544452247  0.9305618944688031 
  0.9135858188955126  0.0000223702692494  0.4744099460480626
  0.9004629834686284  0.5000248740275239  0.0232973215355017
  0.4490472465535831  0.0000309138028598  0.9238306684389244

  0.00000000E+00  0.00000000E+00  0.00000000E+00
  0.00000000E+00  0.00000000E+00  0.00000000E+00
  0.00000000E+00  0.00000000E+00  0.00000000E+00
  0.00000000E+00  0.00000000E+00  0.00000000E+00
  0.00000000E+00  0.00000000E+00  0.00000000E+00
  0.00000000E+00  0.00000000E+00  0.00000000E+00
  0.00000000E+00  0.00000000E+00  0.00000000E+00
  0.00000000E+00  0.00000000E+00  0.00000000E+00
  0.00000000E+00  0.00000000E+00  0.00000000E+00
  0.00000000E+00  0.00000000E+00  0.00000000E+00
  0.00000000E+00  0.00000000E+00  0.00000000E+00
  0.00000000E+00  0.00000000E+00  0.00000000E+00
