MA-Pb-I                                 
   1.00000000000000     
     5.8857348584972646   -0.0000116429338373    0.0677019167604032
    -0.0000113721705701    5.8535748976198549   -0.0000048572736550
     0.0678468051824150   -0.0000044748208102    6.0066012361495211
   C    N    H    Pb   Br
     1     1     6     1     3
Direct
  0.5863592563732981  0.0983963972285725 -0.0091004412820138
  0.9273250548345829  0.7661852122851630  0.9641730472626935
  0.6929592395738450  0.1319628727676321  0.1351197389388790
  0.4788644213553810 -0.0554095408980675  0.0056901592598638
  0.9477417313144728  0.6908554220539994  0.1165359057138987
  0.6738430158540528  0.1211396253051082  0.8291235037083050
 -0.1150149822334029  0.6454883436191208  0.8478251384141976
  0.0744852181833486  0.8437663045798679  0.9116564129970464
  0.3455440815460031  0.3859242097650228  0.4972087603847751
  0.3578932275519010  0.3644530937502778 -0.0028232083055164
  0.3454605785340110 -0.1164463643272274  0.4993712117857672
 -0.1494202940267711  0.3901307719807663  0.4928138790712158
 
  0.00000000E+00  0.00000000E+00  0.00000000E+00
  0.00000000E+00  0.00000000E+00  0.00000000E+00
  0.00000000E+00  0.00000000E+00  0.00000000E+00
  0.00000000E+00  0.00000000E+00  0.00000000E+00
  0.00000000E+00  0.00000000E+00  0.00000000E+00
  0.00000000E+00  0.00000000E+00  0.00000000E+00
  0.00000000E+00  0.00000000E+00  0.00000000E+00
  0.00000000E+00  0.00000000E+00  0.00000000E+00
  0.00000000E+00  0.00000000E+00  0.00000000E+00
  0.00000000E+00  0.00000000E+00  0.00000000E+00
  0.00000000E+00  0.00000000E+00  0.00000000E+00
  0.00000000E+00  0.00000000E+00  0.00000000E+00
