MA-Pb-I                                 
   1.0000000000000000     
     5.8857348584972646   -0.0000116429338373    0.0677019167604032
    -0.0000113721705701    5.8535748976198549   -0.0000048572736550
     0.0678468051824150   -0.0000044748208102    6.0066012361495211
   C    N    H    Pb   Br
     1     1     6     1     3
Direct
  0.5436779668012288  0.2605784696689457  0.0932764857654584 
  0.9525319405622452  0.6222254487606678  0.9052969611541080 
  0.4048325978337444  0.1410438729595165  0.0891482387342680 
  0.3966347053826084  0.0004768894274749  0.1349366574177658 
  0.9471772698294102  0.5197729965418885  0.2159615118042723 
  0.4598269229465589  0.9516430551455595  0.7164489563188480 
  0.9978877386479952  0.4853579869839005  0.7997232077765785 
  0.0827123408362677  0.7363642833955695  0.8959396277449111 
  0.5635935333349316  0.5491574660873326  0.4957472597100229 
  0.4343825501137815  0.4999407920523851  0.9818407606070920
  0.4217797225331665  0.9999416700962840  0.5296464633737443
  0.9610032600387797  0.4999434169907246  0.4296279775420402

  0.00000000E+00  0.00000000E+00  0.00000000E+00
  0.00000000E+00  0.00000000E+00  0.00000000E+00
  0.00000000E+00  0.00000000E+00  0.00000000E+00
  0.00000000E+00  0.00000000E+00  0.00000000E+00
  0.00000000E+00  0.00000000E+00  0.00000000E+00
  0.00000000E+00  0.00000000E+00  0.00000000E+00
  0.00000000E+00  0.00000000E+00  0.00000000E+00
  0.00000000E+00  0.00000000E+00  0.00000000E+00
  0.00000000E+00  0.00000000E+00  0.00000000E+00
  0.00000000E+00  0.00000000E+00  0.00000000E+00
  0.00000000E+00  0.00000000E+00  0.00000000E+00
  0.00000000E+00  0.00000000E+00  0.00000000E+00
