MA-Pb-I                                 
   1.00000000000000     
     5.6267413476480952    0.0000416704727542    0.0620815770375229
    -0.0000317550626923    5.5940171136319288    0.0000254647194750
     0.0578866146782483   -0.0000342937909938    5.7648243532177101
   C    N    H    Pb   Cl
     1     1     6     1     3
Direct
  0.5201839581018594  0.3953077896047333  0.4325487365310712
  0.5149217847676728  0.5467513375328861  0.6438539729700572
  0.3556739012969472  0.4258554749609802  0.3368148179441908
  0.5306590351450300  0.2043470146704661  0.4839368129219153
  0.6772948080682476  0.4427550833785423  0.3248925287598299
  0.3621513051356607  0.5164627841184695  0.7491406041226609
  0.5137823520272933  0.7291332728753328  0.6061221881528271
  0.6635873377039178  0.5192850577423939  0.7472641803462510
  0.0277137209130947  0.0140283709342125  0.9868355586117523
  0.0284032845996998  0.0150405787746420  0.4920847024822493
  0.0256640085065164  0.5113704358419811 -0.0189568366044656
  0.5279899158809691  0.0148636764304033  0.9829591609485941
 
  0.00000000E+00  0.00000000E+00  0.00000000E+00
  0.00000000E+00  0.00000000E+00  0.00000000E+00
  0.00000000E+00  0.00000000E+00  0.00000000E+00
  0.00000000E+00  0.00000000E+00  0.00000000E+00
  0.00000000E+00  0.00000000E+00  0.00000000E+00
  0.00000000E+00  0.00000000E+00  0.00000000E+00
  0.00000000E+00  0.00000000E+00  0.00000000E+00
  0.00000000E+00  0.00000000E+00  0.00000000E+00
  0.00000000E+00  0.00000000E+00  0.00000000E+00
  0.00000000E+00  0.00000000E+00  0.00000000E+00
  0.00000000E+00  0.00000000E+00  0.00000000E+00
  0.00000000E+00  0.00000000E+00  0.00000000E+00
