MA-Pb-I                                 
   1.0000000000000000     
     5.6267413476480952    0.0000416704727542    0.0620815770375229
    -0.0000317550626923    5.5940171136319288    0.0000254647194750
     0.0578866146782483   -0.0000342937909938    5.7648243532177101
   C    N    H    Pb   Cl
     1     1     6     1     3
Direct
  0.5894310128175859  0.3852584379785753  0.4528326202320739 
  0.5614914381393072  0.5288104584342823  0.6674006124589319 
  0.4182314249675170  0.3756465583136029  0.3688939608370922 
  0.6501841748509374  0.2051604109186002  0.5017710622992934 
  0.7182468884142512  0.4714905048461704  0.3324518568102500 
  0.4403368347233206  0.4522603812279412  0.7873177116495251 
  0.5042451909480939  0.7023462839412583  0.6283258241065620 
  0.7173285296137349  0.5459498505225076  0.7570004969353334 
  0.8854338687544376  0.1681998325824661  0.8499643458353816 
  0.9135858188955126  0.0000223702692494  0.4744099460480626
  0.9004629834686284  0.5000248740275239  0.0232973215355017
  0.4490472465535831  0.0000309138028598  0.9238306684389244

  0.00000000E+00  0.00000000E+00  0.00000000E+00
  0.00000000E+00  0.00000000E+00  0.00000000E+00
  0.00000000E+00  0.00000000E+00  0.00000000E+00
  0.00000000E+00  0.00000000E+00  0.00000000E+00
  0.00000000E+00  0.00000000E+00  0.00000000E+00
  0.00000000E+00  0.00000000E+00  0.00000000E+00
  0.00000000E+00  0.00000000E+00  0.00000000E+00
  0.00000000E+00  0.00000000E+00  0.00000000E+00
  0.00000000E+00  0.00000000E+00  0.00000000E+00
  0.00000000E+00  0.00000000E+00  0.00000000E+00
  0.00000000E+00  0.00000000E+00  0.00000000E+00
  0.00000000E+00  0.00000000E+00  0.00000000E+00
