MA-Pb-I                                 
   1.0000000000000000     
     5.6267413476480952    0.0000416704727542    0.0620815770375229
    -0.0000317550626923    5.5940171136319288    0.0000254647194750
     0.0578866146782483   -0.0000342937909938    5.7648243532177101
   C    N    H    Pb   Cl
     1     1     6     1     3
Direct
  0.4128048329495173  0.5463636613772490  0.3778661909656880 
  0.5293967541405856  0.4684636719313188  0.5964185674242465 
  0.3220633449507187  0.3948203723954251  0.3054231128140152 
  0.5478184492389699  0.6106139496009095  0.2507267358798111 
  0.2836400061614931  0.6882064375106663  0.4193161818414295 
  0.6545949992691832  0.3334746870506953  0.5644523930349531 
  0.4065291971838107  0.4063316166556636  0.7227586869086928 
  0.6195892598923013  0.6033351008193558  0.6756783095035233 
  0.4304567283115113  0.7034298195345174  0.2907446922677857 
  0.9135858188955126  0.0000223702692494  0.4744099460480626
  0.9004629834686284  0.5000248740275239  0.0232973215355017
  0.4490472465535831  0.0000309138028598  0.9238306684389244

  0.00000000E+00  0.00000000E+00  0.00000000E+00
  0.00000000E+00  0.00000000E+00  0.00000000E+00
  0.00000000E+00  0.00000000E+00  0.00000000E+00
  0.00000000E+00  0.00000000E+00  0.00000000E+00
  0.00000000E+00  0.00000000E+00  0.00000000E+00
  0.00000000E+00  0.00000000E+00  0.00000000E+00
  0.00000000E+00  0.00000000E+00  0.00000000E+00
  0.00000000E+00  0.00000000E+00  0.00000000E+00
  0.00000000E+00  0.00000000E+00  0.00000000E+00
  0.00000000E+00  0.00000000E+00  0.00000000E+00
  0.00000000E+00  0.00000000E+00  0.00000000E+00
  0.00000000E+00  0.00000000E+00  0.00000000E+00
