MA-Pb-I                                 
   1.00000000000000     
     5.8892445321787328   -0.0048008041779134    0.0656571269169357
    -0.0053334077729528    5.8544884580747532    0.0012821621476484
     0.0639774282558244    0.0006908469467942    6.0230320529523143
   C    N    H    Pb   Br
     1     1     6     1     3
Direct
  0.6103457681983254  0.1717499613900993  0.1560718001772474
  0.8163386910804781  0.1956481226257273  0.1614864383590305
  0.4330757320410751  0.6227996460377717  0.2282507522369081
  0.5004747791266103  0.0171477947185447  0.1704302502598765
  0.8819967783166304  0.1052468179473104  0.5864927737947387
  0.3574745546541237  0.7562062435282856  0.8590220553548478
  0.8941796856149952  0.3534482578918661  0.1461603320488326
  0.8870052336535621  0.2420743547578662  0.6048616166883850
  0.3840893944373370  0.7059158502020095  0.5551295731404990
  0.4104820063929481  0.4493082656726735  0.0157834840624150
  0.3833350074033194  0.1763392633169294  0.5733499467609088
 -0.1145925142836254  0.6871814090933167  0.5573655715684001
 
  0.00000000E+00  0.00000000E+00  0.00000000E+00
  0.00000000E+00  0.00000000E+00  0.00000000E+00
  0.00000000E+00  0.00000000E+00  0.00000000E+00
  0.00000000E+00  0.00000000E+00  0.00000000E+00
  0.00000000E+00  0.00000000E+00  0.00000000E+00
  0.00000000E+00  0.00000000E+00  0.00000000E+00
  0.00000000E+00  0.00000000E+00  0.00000000E+00
  0.00000000E+00  0.00000000E+00  0.00000000E+00
  0.00000000E+00  0.00000000E+00  0.00000000E+00
  0.00000000E+00  0.00000000E+00  0.00000000E+00
  0.00000000E+00  0.00000000E+00  0.00000000E+00
  0.00000000E+00  0.00000000E+00  0.00000000E+00
