MA-Pb-I                                 
   1.00000000000000     
     5.8857348584972646   -0.0000116429338373    0.0677019167604032
    -0.0000113721705701    5.8535748976198549   -0.0000048572736550
     0.0678468051824150   -0.0000044748208102    6.0066012361495211
   C    N    H    Pb   Br
     1     1     6     1     3
Direct
  0.2342414868770166  0.7260130036961083  0.8546599028152932
  0.2303433817193989  0.9277512188510969  0.9449469055585951
  0.1058880322318307  0.6087578265714929  0.9361412011420067
  0.9442687029108136  0.8045242674268482  0.5713094065190939
  0.1861867533439241  0.3420600006785493  0.1450293093091412
  0.0605042529009838  0.3031403627624507  0.1407224049480849
  0.1462055182158985 -0.0293752758883321  0.0903653289324395
  0.3296740579187284  0.0568912971134788  0.8772551093300699
  0.4749721826736816  0.5992702995599227  0.5194589368844700
  0.5849466801728826  0.5081085829310074  0.0017943837169722
  0.4948337256824813  0.0902903882341955  0.4955848713038937
 -0.0262904315772289  0.6104663695957616  0.4239644777841536
 
  0.00000000E+00  0.00000000E+00  0.00000000E+00
  0.00000000E+00  0.00000000E+00  0.00000000E+00
  0.00000000E+00  0.00000000E+00  0.00000000E+00
  0.00000000E+00  0.00000000E+00  0.00000000E+00
  0.00000000E+00  0.00000000E+00  0.00000000E+00
  0.00000000E+00  0.00000000E+00  0.00000000E+00
  0.00000000E+00  0.00000000E+00  0.00000000E+00
  0.00000000E+00  0.00000000E+00  0.00000000E+00
  0.00000000E+00  0.00000000E+00  0.00000000E+00
  0.00000000E+00  0.00000000E+00  0.00000000E+00
  0.00000000E+00  0.00000000E+00  0.00000000E+00
  0.00000000E+00  0.00000000E+00  0.00000000E+00
