MA-Pb-I                                 
   1.00000000000000     
     6.2884187138843197    0.0009579558247489    0.0690993966769832
     0.0005978161223733    6.2287690412624563   -0.0003732067435118
     0.0697053521696059    0.0000445224912706    6.3737103126460282
   C    N    H    Pb   I 
     1     1     6     1     3
Direct
  0.5165850685979513  0.3093347560197438  0.5259218125212732
  0.5178206106634234  0.5438831088610462  0.5255543954835047
  0.5177412151400391  0.2535556058862419  0.6918795510876634
  0.6591987128830524  0.2529221791485236  0.4382002063682797
  0.3712954440639351  0.2518498056844031  0.4479282955696415
  0.6639651479927409  0.6003281575941961  0.5729231920314941
  0.4007748081469736  0.6058901478470006  0.6229439731983111
  0.4940117034901749  0.6042552186430952  0.3748227717057826
  0.0438623498837362  0.4809728120973578  0.1228540641506766
  0.0483600062373352 -0.0173481142414144  0.1404627345934628
  0.5523065128719103  0.4941845467435439  0.0501306663729777
  0.0207965696282441  0.4663098991708484  0.6533057199117737
 
  0.00000000E+00  0.00000000E+00  0.00000000E+00
  0.00000000E+00  0.00000000E+00  0.00000000E+00
  0.00000000E+00  0.00000000E+00  0.00000000E+00
  0.00000000E+00  0.00000000E+00  0.00000000E+00
  0.00000000E+00  0.00000000E+00  0.00000000E+00
  0.00000000E+00  0.00000000E+00  0.00000000E+00
  0.00000000E+00  0.00000000E+00  0.00000000E+00
  0.00000000E+00  0.00000000E+00  0.00000000E+00
  0.00000000E+00  0.00000000E+00  0.00000000E+00
  0.00000000E+00  0.00000000E+00  0.00000000E+00
  0.00000000E+00  0.00000000E+00  0.00000000E+00
  0.00000000E+00  0.00000000E+00  0.00000000E+00
