MA-Pb-I                                 
   1.00000000000000     
     5.8892445321787328   -0.0048008041779134    0.0656571269169357
    -0.0053334077729528    5.8544884580747532    0.0012821621476484
     0.0639774282558244    0.0006908469467942    6.0230320529523143
   C    N    H    Pb   Br
     1     1     6     1     3
Direct
  0.4278504709005469  0.1435116577507556  0.1885413197748587 
  0.2485600500299420  0.9910839979438999  0.0236505835744993 
  0.2889560480753834  0.1800053562754083  0.0753900760462076 
  0.1334572164408427  0.0292429244564429  0.3250176510946872 
  0.8729418459992991  0.4006264345934076  0.4483831966835582 
  0.4806509592119491  0.8119729014530723  0.9048213369348792 
  0.2125912280075319  0.1657834470417786  0.0307447523825155 
  0.3725735041851767  0.9621816352215893  0.1406791658650256 
  0.5449021740416872  0.5006181455147545  0.4670018418353811 
  0.4352272726238539  0.4972012503325617  0.9832769846011953
  0.4159970891092727  0.9985715009710078  0.5336351900357424
  0.9598885390497535  0.4995712578389358  0.4264000332832606
 
  0.00000000E+00  0.00000000E+00  0.00000000E+00
  0.00000000E+00  0.00000000E+00  0.00000000E+00
  0.00000000E+00  0.00000000E+00  0.00000000E+00
  0.00000000E+00  0.00000000E+00  0.00000000E+00
  0.00000000E+00  0.00000000E+00  0.00000000E+00
  0.00000000E+00  0.00000000E+00  0.00000000E+00
  0.00000000E+00  0.00000000E+00  0.00000000E+00
  0.00000000E+00  0.00000000E+00  0.00000000E+00
  0.00000000E+00  0.00000000E+00  0.00000000E+00
  0.00000000E+00  0.00000000E+00  0.00000000E+00
  0.00000000E+00  0.00000000E+00  0.00000000E+00
  0.00000000E+00  0.00000000E+00  0.00000000E+00
