MA-Pb-I                                 
   1.00000000000000     
     5.8857348584972646   -0.0000116429338373    0.0677019167604032
    -0.0000113721705701    5.8535748976198549   -0.0000048572736550
     0.0678468051824150   -0.0000044748208102    6.0066012361495211
   C    N    H    Pb   Br
     1     1     6     1     3
Direct
 -0.0041734777505946  0.8199462838814673  0.6961046316197412
  0.6118434061510744  0.6877281718167647  0.1125893529515504
  0.1710828622546698  0.8633568191110562  0.7344621694707201
  0.1937319068825377  0.1772698676648647 -0.0430180990290096
  0.8832322837696753  0.7695049733091741  0.8365815979343397
  0.9205675002120005 -0.0459899091956405  0.5903634962822722
  0.5352390456128457  0.8485867849259403  0.1045049786078644
  0.7820505188423911  0.7350604617033851  0.1332857071326554
  0.5342916986574464  0.5899966561079663  0.4873410654254626
  0.3484550999032644  0.3653474348332078 -0.0020926560419746
  0.5223644506544050  0.0935675661882444  0.5109066314297126
  0.0300296905125851  0.5525536963923703  0.5128902192972924
 
  0.00000000E+00  0.00000000E+00  0.00000000E+00
  0.00000000E+00  0.00000000E+00  0.00000000E+00
  0.00000000E+00  0.00000000E+00  0.00000000E+00
  0.00000000E+00  0.00000000E+00  0.00000000E+00
  0.00000000E+00  0.00000000E+00  0.00000000E+00
  0.00000000E+00  0.00000000E+00  0.00000000E+00
  0.00000000E+00  0.00000000E+00  0.00000000E+00
  0.00000000E+00  0.00000000E+00  0.00000000E+00
  0.00000000E+00  0.00000000E+00  0.00000000E+00
  0.00000000E+00  0.00000000E+00  0.00000000E+00
  0.00000000E+00  0.00000000E+00  0.00000000E+00
  0.00000000E+00  0.00000000E+00  0.00000000E+00
