MA-Pb-I                                 
   1.0000000000000000     
     5.8857348584972646   -0.0000116429338373    0.0677019167604032
    -0.0000113721705701    5.8535748976198549   -0.0000048572736550
     0.0678468051824150   -0.0000044748208102    6.0066012361495211
   C    N    H    Pb   Br
     1     1     6     1     3
Direct
  0.2887873481437357  0.6688614460447551  0.5803470056414088 
  0.6264495986370218  0.7615262849279575  0.1874385340213499 
  0.2201128251239823  0.5160060564860659  0.6545267770661312 
  0.1699502219959902  0.2715515737819799  0.0293031657659448 
  0.7441411587309756  0.9284188861590752  0.8537748571582480 
  0.9310606921242051  0.1593616733051630  0.5050133868715013 
  0.5211953544307517  0.8066996805400035  0.3246120603333683 
  0.6967375573041409  0.9089329988944402  0.1291887836368034 
  0.5131146965257707  0.4357443274599658  0.4685993230629996 
  0.4343825501137815  0.4999407920523851  0.9818407606070920
  0.4217797225331665  0.9999416700962840  0.5296464633737443
  0.9610032600387797  0.4999434169907246  0.4296279775420402

  0.00000000E+00  0.00000000E+00  0.00000000E+00
  0.00000000E+00  0.00000000E+00  0.00000000E+00
  0.00000000E+00  0.00000000E+00  0.00000000E+00
  0.00000000E+00  0.00000000E+00  0.00000000E+00
  0.00000000E+00  0.00000000E+00  0.00000000E+00
  0.00000000E+00  0.00000000E+00  0.00000000E+00
  0.00000000E+00  0.00000000E+00  0.00000000E+00
  0.00000000E+00  0.00000000E+00  0.00000000E+00
  0.00000000E+00  0.00000000E+00  0.00000000E+00
  0.00000000E+00  0.00000000E+00  0.00000000E+00
  0.00000000E+00  0.00000000E+00  0.00000000E+00
  0.00000000E+00  0.00000000E+00  0.00000000E+00
