MA-Pb-I                                 
   1.0000000000000000     
     5.6267413476480952    0.0000416704727542    0.0620815770375229
    -0.0000317550626923    5.5940171136319288    0.0000254647194750
     0.0578866146782483   -0.0000342937909938    5.7648243532177101
   C    N    H    Pb   Cl
     1     1     6     1     3
Direct
  0.4648453159791680  0.5814182934203304  0.4344186858560562 
  0.5440669657460452  0.4293897978578695  0.6294532787969314 
  0.4215724106487658  0.7514628025882886  0.5096497048432287 
  0.3057509111584455  0.5029398348051305  0.3504465532879524 
  0.6097182733716762  0.6010759446388551  0.3034743070957083 
  0.4106165298238857  0.4056322798592599  0.7580807424981165 
  0.6960431617957923  0.4977845642841967  0.7139757396957043 
  0.5884459946185342  0.2642132286811972  0.5715369604582596 
  0.1976841043342952  0.0983919529015594  0.7310015414545421 
  0.9135858188955126  0.0000223702692494  0.4744099460480626
  0.9004629834686284  0.5000248740275239  0.0232973215355017
  0.4490472465535831  0.0000309138028598  0.9238306684389244

  0.00000000E+00  0.00000000E+00  0.00000000E+00
  0.00000000E+00  0.00000000E+00  0.00000000E+00
  0.00000000E+00  0.00000000E+00  0.00000000E+00
  0.00000000E+00  0.00000000E+00  0.00000000E+00
  0.00000000E+00  0.00000000E+00  0.00000000E+00
  0.00000000E+00  0.00000000E+00  0.00000000E+00
  0.00000000E+00  0.00000000E+00  0.00000000E+00
  0.00000000E+00  0.00000000E+00  0.00000000E+00
  0.00000000E+00  0.00000000E+00  0.00000000E+00
  0.00000000E+00  0.00000000E+00  0.00000000E+00
  0.00000000E+00  0.00000000E+00  0.00000000E+00
  0.00000000E+00  0.00000000E+00  0.00000000E+00
