MA-Pb-I                                 
   1.0000000000000000     
     6.2884187138843197    0.0009579558247489    0.0690993966769832
     0.0005978161223733    6.2287690412624563   -0.0003732067435118
     0.0697053521696059    0.0000445224912706    6.3737103126460282
   C    N    H    Pb   I 
     1     1     6     1     3
Direct
  0.3959045205941680  0.5140435238402216  0.5559442614418002 
  0.5700436877979660  0.5248431931720412  0.4013161953864726 
  0.2528720566541629  0.4702791154100894  0.4693993268559083 
  0.3755781807213322  0.6720271239623086  0.6316343158091740 
  0.4336085250202886  0.3918464467142109  0.6773260809364338 
  0.5413875709952535  0.6398941134599806  0.2825293726469625 
  0.5957587257832639  0.3773319741408769  0.3254048637946230 
  0.7115320906969633  0.5657455509373602  0.4722486017403556 
  0.9951826208968411  0.0968273190815618  0.2023040404276162 
  0.9094873486598019  0.9999820990246278  0.4751454839169895
  0.8992708791277906  0.4999580210910821  0.0236644354684188
  0.4323428768805755  0.9999948727175436  0.9224794036872126

  0.00000000E+00  0.00000000E+00  0.00000000E+00
  0.00000000E+00  0.00000000E+00  0.00000000E+00
  0.00000000E+00  0.00000000E+00  0.00000000E+00
  0.00000000E+00  0.00000000E+00  0.00000000E+00
  0.00000000E+00  0.00000000E+00  0.00000000E+00
  0.00000000E+00  0.00000000E+00  0.00000000E+00
  0.00000000E+00  0.00000000E+00  0.00000000E+00
  0.00000000E+00  0.00000000E+00  0.00000000E+00
  0.00000000E+00  0.00000000E+00  0.00000000E+00
  0.00000000E+00  0.00000000E+00  0.00000000E+00
  0.00000000E+00  0.00000000E+00  0.00000000E+00
  0.00000000E+00  0.00000000E+00  0.00000000E+00
