MA-Pb-I                                 
   1.00000000000000     
     5.8892445321787328   -0.0048008041779134    0.0656571269169357
    -0.0053334077729528    5.8544884580747532    0.0012821621476484
     0.0639774282558244    0.0006908469467942    6.0230320529523143
   C    N    H    Pb   Br
     1     1     6     1     3
Direct
  0.3094287165862586  0.1594579302606892  0.6019045602357700 
  0.2211195052062039  0.0003479533685155  0.0520342631595652 
  0.2116203620648078  0.2440826986905311  0.7311285093910485 
  0.3586377457721517  0.0022163078999653  0.6530439599143303 
  0.6187647199578645  0.5708644182131191  0.1268746384979678 
  0.9373337044263266  0.6158630593066402  0.5205721802937560 
  0.2038977556606641  0.1724905664114376  0.0080534375510770 
  0.3234663846851534  0.9294913140740492  0.9319725066165665 
  0.5294948821939460  0.3602679309652002  0.4869092532719057 
  0.4352272726238539  0.4972012503325617  0.9832769846011953
  0.4159970891092727  0.9985715009710078  0.5336351900357424
  0.9598885390497535  0.4995712578389358  0.4264000332832606
 
  0.00000000E+00  0.00000000E+00  0.00000000E+00
  0.00000000E+00  0.00000000E+00  0.00000000E+00
  0.00000000E+00  0.00000000E+00  0.00000000E+00
  0.00000000E+00  0.00000000E+00  0.00000000E+00
  0.00000000E+00  0.00000000E+00  0.00000000E+00
  0.00000000E+00  0.00000000E+00  0.00000000E+00
  0.00000000E+00  0.00000000E+00  0.00000000E+00
  0.00000000E+00  0.00000000E+00  0.00000000E+00
  0.00000000E+00  0.00000000E+00  0.00000000E+00
  0.00000000E+00  0.00000000E+00  0.00000000E+00
  0.00000000E+00  0.00000000E+00  0.00000000E+00
  0.00000000E+00  0.00000000E+00  0.00000000E+00
