MA-Pb-I                                 
   1.00000000000000     
     6.2884187138843197    0.0009579558247489    0.0690993966769832
     0.0005978161223733    6.2287690412624563   -0.0003732067435118
     0.0697053521696059    0.0000445224912706    6.3737103126460282
   C    N    H    Pb   I 
     1     1     6     1     3
Direct
  0.5559589854909965  0.5989589235104066  0.4950180811213086
  0.5551308961451277  0.3624425527279229  0.4900807911318301
  0.4258351427498218  0.6563976891080358  0.6010332124649600
  0.5354130023543016  0.6591309542408410  0.3338174178549586
  0.7087925167751462  0.6555899960410245  0.5553273025745348
  0.4097067211744932  0.3084167016640954  0.4339668507925136
  0.5834844090291731  0.3008688401188164  0.6391999916294370
  0.6739744109129541  0.3080497571986336  0.3871244969039778
  0.1192149407241805  0.4492611134393710 -0.1133207472423448
  0.6369807066302142  0.4426209952269652  0.9608081918830360
  0.0781556545846500  0.4625174287869347  0.3560439753218331
  0.1308530496772832 -0.0474813447989486  0.8736161809322454
 
  0.00000000E+00  0.00000000E+00  0.00000000E+00
  0.00000000E+00  0.00000000E+00  0.00000000E+00
  0.00000000E+00  0.00000000E+00  0.00000000E+00
  0.00000000E+00  0.00000000E+00  0.00000000E+00
  0.00000000E+00  0.00000000E+00  0.00000000E+00
  0.00000000E+00  0.00000000E+00  0.00000000E+00
  0.00000000E+00  0.00000000E+00  0.00000000E+00
  0.00000000E+00  0.00000000E+00  0.00000000E+00
  0.00000000E+00  0.00000000E+00  0.00000000E+00
  0.00000000E+00  0.00000000E+00  0.00000000E+00
  0.00000000E+00  0.00000000E+00  0.00000000E+00
  0.00000000E+00  0.00000000E+00  0.00000000E+00
