MA-Pb-I                                 
   1.0000000000000000     
     6.2884187138843197    0.0009579558247489    0.0690993966769832
     0.0005978161223733    6.2287690412624563   -0.0003732067435118
     0.0697053521696059    0.0000445224912706    6.3737103126460282
   C    N    H    Pb   I 
     1     1     6     1     3
Direct
  0.5382707001340949  0.5860925954481166  0.5010923080236078 
  0.5043764001501067  0.3641266566868127  0.5638076943536643 
  0.5127850991492567  0.6836842486830152  0.6414133265838559 
  0.4227456253221776  0.6290864779463641  0.3749715504627475 
  0.7034889690403892  0.6052568612330044  0.4425865967787510 
  0.3484898404033481  0.3380110746299870  0.6202484013833758 
  0.6115996615859821  0.3157121014489956  0.6835681061384918 
  0.5259137598228474  0.2617647465270477  0.4381830200910231 
  0.0047292759719778  0.8731038518275001  0.3255554184801396 
  0.9094873486598019  0.9999820990246278  0.4751454839169895
  0.8992708791277906  0.4999580210910821  0.0236644354684188
  0.4323428768805755  0.9999948727175436  0.9224794036872126

  0.00000000E+00  0.00000000E+00  0.00000000E+00
  0.00000000E+00  0.00000000E+00  0.00000000E+00
  0.00000000E+00  0.00000000E+00  0.00000000E+00
  0.00000000E+00  0.00000000E+00  0.00000000E+00
  0.00000000E+00  0.00000000E+00  0.00000000E+00
  0.00000000E+00  0.00000000E+00  0.00000000E+00
  0.00000000E+00  0.00000000E+00  0.00000000E+00
  0.00000000E+00  0.00000000E+00  0.00000000E+00
  0.00000000E+00  0.00000000E+00  0.00000000E+00
  0.00000000E+00  0.00000000E+00  0.00000000E+00
  0.00000000E+00  0.00000000E+00  0.00000000E+00
  0.00000000E+00  0.00000000E+00  0.00000000E+00
