MA-Pb-I                                 
   1.00000000000000     
     6.2884187138843197    0.0009579558247489    0.0690993966769832
     0.0005978161223733    6.2287690412624563   -0.0003732067435118
     0.0697053521696059    0.0000445224912706    6.3737103126460282
   C    N    H    Pb   I 
     1     1     6     1     3
Direct
  0.4264864110195162  0.5502138863253234  0.5598025041110455
  0.4502899527874679  0.5731807348098673  0.3299295729873283
  0.4867219614400933  0.6959594257289962  0.6356958104243560
  0.5167863762855149  0.4090986714003513  0.6099905508310662
  0.2562513703857671  0.5279272077945983  0.6036592764597674
  0.6108272294335926  0.5838466827009122  0.2777925952235684
  0.3780290466008516  0.7114398648252229  0.2716340083406352
  0.3887956335411155  0.4406748062397892  0.2496585818275111
  0.9004051069588062  0.0716362020073451  0.0148122146180148
  0.8925967259288468  0.0719066363021770  0.5137584948259419
  0.9113566508112463  0.5731492455604547  0.0141356916513872
  0.3981446817454686  0.0700667599483020  0.0139561912895809
 
  0.00000000E+00  0.00000000E+00  0.00000000E+00
  0.00000000E+00  0.00000000E+00  0.00000000E+00
  0.00000000E+00  0.00000000E+00  0.00000000E+00
  0.00000000E+00  0.00000000E+00  0.00000000E+00
  0.00000000E+00  0.00000000E+00  0.00000000E+00
  0.00000000E+00  0.00000000E+00  0.00000000E+00
  0.00000000E+00  0.00000000E+00  0.00000000E+00
  0.00000000E+00  0.00000000E+00  0.00000000E+00
  0.00000000E+00  0.00000000E+00  0.00000000E+00
  0.00000000E+00  0.00000000E+00  0.00000000E+00
  0.00000000E+00  0.00000000E+00  0.00000000E+00
  0.00000000E+00  0.00000000E+00  0.00000000E+00
