MA-Pb-I                                 
   1.0000000000000000     
     6.2884187138843197    0.0009579558247489    0.0690993966769832
     0.0005978161223733    6.2287690412624563   -0.0003732067435118
     0.0697053521696059    0.0000445224912706    6.3737103126460282
   C    N    H    Pb   I 
     1     1     6     1     3
Direct
  0.4397848213778112  0.5429913097483515  0.5970680229520523 
  0.4420205160348106  0.5830793389838792  0.3674185665940372 
  0.4867717872583738  0.6896990771788467  0.6753795221163714 
  0.5543284344450927  0.4142768172643901  0.6346619381563331 
  0.2768691883234502  0.4969608133089826  0.6463321439304577 
  0.5945550008570981  0.6270138498138432  0.3129099778763736 
  0.3345258925201622  0.7044593895001194  0.3238853329120316 
  0.3989041146361829  0.4502978989387064  0.2823689198764515 
  0.8478302868171324  0.2703866360729704  0.8335117451034655 
  0.9094873486598019  0.9999820990246278  0.4751454839169895
  0.8992708791277906  0.4999580210910821  0.0236644354684188
  0.4323428768805755  0.9999948727175436  0.9224794036872126

  0.00000000E+00  0.00000000E+00  0.00000000E+00
  0.00000000E+00  0.00000000E+00  0.00000000E+00
  0.00000000E+00  0.00000000E+00  0.00000000E+00
  0.00000000E+00  0.00000000E+00  0.00000000E+00
  0.00000000E+00  0.00000000E+00  0.00000000E+00
  0.00000000E+00  0.00000000E+00  0.00000000E+00
  0.00000000E+00  0.00000000E+00  0.00000000E+00
  0.00000000E+00  0.00000000E+00  0.00000000E+00
  0.00000000E+00  0.00000000E+00  0.00000000E+00
  0.00000000E+00  0.00000000E+00  0.00000000E+00
  0.00000000E+00  0.00000000E+00  0.00000000E+00
  0.00000000E+00  0.00000000E+00  0.00000000E+00
