MA-Pb-I                                 
   1.0000000000000000     
     6.2884187138843197    0.0009579558247489    0.0690993966769832
     0.0005978161223733    6.2287690412624563   -0.0003732067435118
     0.0697053521696059    0.0000445224912706    6.3737103126460282
   C    N    H    Pb   I 
     1     1     6     1     3
Direct
  0.6564752138362981  0.5132679000678106  0.6419472708071848 
  0.4566967783226645  0.4384660549390006  0.5479037601689158 
  0.7811389437638573  0.4877058805169587  0.5250320344797709 
  0.6900231569801175  0.4206986223727400  0.7882566234410118 
  0.6422253860882943  0.6849584594470890  0.6794513764613085 
  0.4625550738174470  0.2750848893918138  0.5099502140342158 
  0.4177834061719305  0.5227572320881941  0.4080320328422150 
  0.3306687444545456  0.4577648137112772  0.6502163688054339 
  0.0004928717589150  0.8984330922122180  0.7664379345096883 
  0.9094873486598019  0.9999820990246278  0.4751454839169895
  0.8992708791277906  0.4999580210910821  0.0236644354684188
  0.4323428768805755  0.9999948727175436  0.9224794036872126

  0.00000000E+00  0.00000000E+00  0.00000000E+00
  0.00000000E+00  0.00000000E+00  0.00000000E+00
  0.00000000E+00  0.00000000E+00  0.00000000E+00
  0.00000000E+00  0.00000000E+00  0.00000000E+00
  0.00000000E+00  0.00000000E+00  0.00000000E+00
  0.00000000E+00  0.00000000E+00  0.00000000E+00
  0.00000000E+00  0.00000000E+00  0.00000000E+00
  0.00000000E+00  0.00000000E+00  0.00000000E+00
  0.00000000E+00  0.00000000E+00  0.00000000E+00
  0.00000000E+00  0.00000000E+00  0.00000000E+00
  0.00000000E+00  0.00000000E+00  0.00000000E+00
  0.00000000E+00  0.00000000E+00  0.00000000E+00
