MA-Pb-I                                 
   1.00000000000000     
     5.8892445321787328   -0.0048008041779134    0.0656571269169357
    -0.0053334077729528    5.8544884580747532    0.0012821621476484
     0.0639774282558244    0.0006908469467942    6.0230320529523143
   C    N    H    Pb   Br
     1     1     6     1     3
Direct
 -0.0097816697283330  0.0213513727221417 -0.0109116491980421
  0.7904900678310337 -0.0251617431850943  0.1217322369944034
  0.0390442254881445  0.2028893257439221 -0.0163054479079861
  0.8928941117311626  0.2972001643731009  0.4277814106784683
  0.1330402532841005  0.9213785849726616  0.0528379679099986
 -0.0317885483029885  0.9680476138079944  0.8126127885144975
  0.6522813348196945  0.0741338276794478  0.0803306267401750
  0.8017318438091456 -0.0220860289233194  0.2905564078181674
  0.4080244095621888  0.5112075047835152  0.5284175134279554
  0.4086940393266015  0.4965022672903755  0.0249910044981337
  0.4019741503969095  0.0155096271165914  0.5315527418654659
 -0.0906660848085279  0.5169724333134159  0.5430135075251796
 
  0.00000000E+00  0.00000000E+00  0.00000000E+00
  0.00000000E+00  0.00000000E+00  0.00000000E+00
  0.00000000E+00  0.00000000E+00  0.00000000E+00
  0.00000000E+00  0.00000000E+00  0.00000000E+00
  0.00000000E+00  0.00000000E+00  0.00000000E+00
  0.00000000E+00  0.00000000E+00  0.00000000E+00
  0.00000000E+00  0.00000000E+00  0.00000000E+00
  0.00000000E+00  0.00000000E+00  0.00000000E+00
  0.00000000E+00  0.00000000E+00  0.00000000E+00
  0.00000000E+00  0.00000000E+00  0.00000000E+00
  0.00000000E+00  0.00000000E+00  0.00000000E+00
  0.00000000E+00  0.00000000E+00  0.00000000E+00
