MA-Pb-I                                 
   1.0000000000000000     
     5.6267413476480952    0.0000416704727542    0.0620815770375229
    -0.0000317550626923    5.5940171136319288    0.0000254647194750
     0.0578866146782483   -0.0000342937909938    5.7648243532177101
   C    N    H    Pb   Cl
     1     1     6     1     3
Direct
  0.3213151181327326  0.6629491203297371  0.3974103569326953 
  0.4595270536625138  0.4580594535618995  0.4770653067303058 
  0.4456306720916948  0.8010020416805503  0.3534283196659127 
  0.2032611845311292  0.7228617621664876  0.5423067380788171 
  0.2167912969342269  0.6139480743780645  0.2386819862432719 
  0.5614205089580058  0.4972812195400122  0.6287156933733082 
  0.5741280383320906  0.3950118926460955  0.3436101681556558 
  0.3531836607210091  0.3192486601840889  0.5221179821010211 
  0.4962211728041085  0.7767741411005840  0.1914241830878891 
  0.9135858188955126  0.0000223702692494  0.4744099460480626
  0.9004629834686284  0.5000248740275239  0.0232973215355017
  0.4490472465535831  0.0000309138028598  0.9238306684389244

  0.00000000E+00  0.00000000E+00  0.00000000E+00
  0.00000000E+00  0.00000000E+00  0.00000000E+00
  0.00000000E+00  0.00000000E+00  0.00000000E+00
  0.00000000E+00  0.00000000E+00  0.00000000E+00
  0.00000000E+00  0.00000000E+00  0.00000000E+00
  0.00000000E+00  0.00000000E+00  0.00000000E+00
  0.00000000E+00  0.00000000E+00  0.00000000E+00
  0.00000000E+00  0.00000000E+00  0.00000000E+00
  0.00000000E+00  0.00000000E+00  0.00000000E+00
  0.00000000E+00  0.00000000E+00  0.00000000E+00
  0.00000000E+00  0.00000000E+00  0.00000000E+00
  0.00000000E+00  0.00000000E+00  0.00000000E+00
