MA-Pb-I                                 
   1.00000000000000     
     6.2884187138843197    0.0009579558247489    0.0690993966769832
     0.0005978161223733    6.2287690412624563   -0.0003732067435118
     0.0697053521696059    0.0000445224912706    6.3737103126460282
   C    N    H    Pb   I 
     1     1     6     1     3
Direct
  0.5510097841808627  0.5778614855434220  0.4848183144552827
  0.3845960835883577  0.4320120910713705  0.5728111635481131
  0.5669360004635418  0.7182194056801083  0.5891393519758087
  0.5035068397036940  0.6313080435773749  0.3275383980965494
  0.7033252679780769  0.4900939875881624  0.4735767420070256
  0.2471223324052076  0.5129569454692559  0.6217665624501569
  0.4337523304575048  0.3469989089441083  0.7076623431374767
  0.3353201075653816  0.3153273144000442  0.4671421621816849
  0.9429421331570087  0.0665405301153101 -0.0061809894494777
 -0.0547966087144065  0.0605504849815105  0.4937496931554132
  0.9466309583184720  0.5665285015210789 -0.0134026464630834
  0.4436461895339043  0.0743730161510386 -0.0003591595607277
 
  0.00000000E+00  0.00000000E+00  0.00000000E+00
  0.00000000E+00  0.00000000E+00  0.00000000E+00
  0.00000000E+00  0.00000000E+00  0.00000000E+00
  0.00000000E+00  0.00000000E+00  0.00000000E+00
  0.00000000E+00  0.00000000E+00  0.00000000E+00
  0.00000000E+00  0.00000000E+00  0.00000000E+00
  0.00000000E+00  0.00000000E+00  0.00000000E+00
  0.00000000E+00  0.00000000E+00  0.00000000E+00
  0.00000000E+00  0.00000000E+00  0.00000000E+00
  0.00000000E+00  0.00000000E+00  0.00000000E+00
  0.00000000E+00  0.00000000E+00  0.00000000E+00
  0.00000000E+00  0.00000000E+00  0.00000000E+00
