MA-Pb-I                                 
   1.0000000000000000     
     6.2884187138843197    0.0009579558247489    0.0690993966769832
     0.0005978161223733    6.2287690412624563   -0.0003732067435118
     0.0697053521696059    0.0000445224912706    6.3737103126460282
   C    N    H    Pb   I 
     1     1     6     1     3
Direct
  0.5781013207176683  0.5867802632326025  0.4595171596086088 
  0.4142964372504354  0.4488711853170602  0.5517124284942240 
  0.5757604479074131  0.7354419822975635  0.5475958090510328 
  0.5406818636697700  0.6158219944245901  0.2896427224089219 
  0.7353955349904693  0.5087606099812064  0.4756021704748470 
  0.2611973129732586  0.5165460331672841  0.5395071157218750 
  0.4437116023390424  0.4162159109420507  0.7137362980350913 
  0.4071978916157430  0.3042479426544107  0.4758368353931738 
  0.8065479025056381  0.1601498001927450  0.2438220732738234 
  0.9094873486598019  0.9999820990246278  0.4751454839169895
  0.8992708791277906  0.4999580210910821  0.0236644354684188
  0.4323428768805755  0.9999948727175436  0.9224794036872126

  0.00000000E+00  0.00000000E+00  0.00000000E+00
  0.00000000E+00  0.00000000E+00  0.00000000E+00
  0.00000000E+00  0.00000000E+00  0.00000000E+00
  0.00000000E+00  0.00000000E+00  0.00000000E+00
  0.00000000E+00  0.00000000E+00  0.00000000E+00
  0.00000000E+00  0.00000000E+00  0.00000000E+00
  0.00000000E+00  0.00000000E+00  0.00000000E+00
  0.00000000E+00  0.00000000E+00  0.00000000E+00
  0.00000000E+00  0.00000000E+00  0.00000000E+00
  0.00000000E+00  0.00000000E+00  0.00000000E+00
  0.00000000E+00  0.00000000E+00  0.00000000E+00
  0.00000000E+00  0.00000000E+00  0.00000000E+00
