MA-Pb-I                                 
   1.00000000000000     
     5.8857348584972646   -0.0000116429338373    0.0677019167604032
    -0.0000113721705701    5.8535748976198549   -0.0000048572736550
     0.0678468051824150   -0.0000044748208102    6.0066012361495211
   C    N    H    Pb   Br
     1     1     6     1     3
Direct
  0.4759369034870404  0.8646758437400174  0.1348383097936463
  0.2335891933926183  0.2340253073628726  0.4636327725941852
  0.6335960942787251  0.9140919225396786  0.2176423254560057
  0.3265006945287277  0.9060416825405603  0.2414377873069136
  0.8982057683091754  0.9181978908925931  0.6587639332482452
  0.4609126954518091 -0.0769038406460073 -0.0386666105951883
  0.2290854986357938  0.0803925288816548  0.5487932755565336
  0.0697343135626871  0.2805718964398031  0.4292978925531185
  0.4692720958450204  0.5251427951847908  0.5964967688569807
  0.4991734334371007  0.5274384706930672  0.1065441322379225
  0.6485430236404455  0.0866343563731558  0.6567184574512360
 -0.0021272492895323  0.6600027323483069  0.6363090605313848
 
  0.00000000E+00  0.00000000E+00  0.00000000E+00
  0.00000000E+00  0.00000000E+00  0.00000000E+00
  0.00000000E+00  0.00000000E+00  0.00000000E+00
  0.00000000E+00  0.00000000E+00  0.00000000E+00
  0.00000000E+00  0.00000000E+00  0.00000000E+00
  0.00000000E+00  0.00000000E+00  0.00000000E+00
  0.00000000E+00  0.00000000E+00  0.00000000E+00
  0.00000000E+00  0.00000000E+00  0.00000000E+00
  0.00000000E+00  0.00000000E+00  0.00000000E+00
  0.00000000E+00  0.00000000E+00  0.00000000E+00
  0.00000000E+00  0.00000000E+00  0.00000000E+00
  0.00000000E+00  0.00000000E+00  0.00000000E+00
