MA-Pb-I                                 
   1.0000000000000000     
     5.8857348584972646   -0.0000116429338373    0.0677019167604032
    -0.0000113721705701    5.8535748976198549   -0.0000048572736550
     0.0678468051824150   -0.0000044748208102    6.0066012361495211
   C    N    H    Pb   Br
     1     1     6     1     3
Direct
  0.5712381016793232  0.8029148610785184  0.2751721659012549 
  0.2728000109098909  0.3493319436101026  0.4275880222382935 
  0.6399103320863798  0.6371704803504867  0.2378020743071110 
  0.3143817743355262  0.8438879028539131  0.4842831701125325 
  0.8712928121212123  0.9881183943429219  0.8680710302434980 
  0.5650147216242296  0.0863850842038857  0.0121467530938477 
  0.1373904314175394  0.2346189650943309  0.4065916831008580 
  0.2018891038504051  0.5007133924361725  0.4736039986722455 
  0.5513396445693871  0.4773446832407763  0.5254340057984697 
  0.4343825501137815  0.4999407920523851  0.9818407606070920
  0.4217797225331665  0.9999416700962840  0.5296464633737443
  0.9610032600387797  0.4999434169907246  0.4296279775420402

  0.00000000E+00  0.00000000E+00  0.00000000E+00
  0.00000000E+00  0.00000000E+00  0.00000000E+00
  0.00000000E+00  0.00000000E+00  0.00000000E+00
  0.00000000E+00  0.00000000E+00  0.00000000E+00
  0.00000000E+00  0.00000000E+00  0.00000000E+00
  0.00000000E+00  0.00000000E+00  0.00000000E+00
  0.00000000E+00  0.00000000E+00  0.00000000E+00
  0.00000000E+00  0.00000000E+00  0.00000000E+00
  0.00000000E+00  0.00000000E+00  0.00000000E+00
  0.00000000E+00  0.00000000E+00  0.00000000E+00
  0.00000000E+00  0.00000000E+00  0.00000000E+00
  0.00000000E+00  0.00000000E+00  0.00000000E+00
