MA-Pb-I                                 
   1.00000000000000     
     5.8892445321787328   -0.0048008041779134    0.0656571269169357
    -0.0053334077729528    5.8544884580747532    0.0012821621476484
     0.0639774282558244    0.0006908469467942    6.0230320529523143
   C    N    H    Pb   Br
     1     1     6     1     3
Direct
  0.5171511851161221  0.0937916046234412  0.9843449182216142
  0.8495340808089225  0.3075939781445655  0.7126835054319159
  0.3732236900380069  0.9783480360292504  0.0153644168591764
  0.6349881802160207  0.1007066669869161  0.1205641794227210
 -0.0954658221188736  0.2863670652695570 -0.1273229280374964
  0.6064430838982701  0.0785445554256144  0.8254682449397155
  0.9417074994860278  0.2075107247936994  0.6055365963573774
  0.8737211397138726  0.4723967686957403  0.6640968191883621
  0.3866064934841285  0.4400497680519360  0.4524595625024790
  0.3855891693822990  0.4034206893382443  0.9679399737786566
  0.3616716860512335 -0.0762941937784973  0.4762686010665343
 -0.1156588358792096  0.5369424361846821  0.2869817377159554
 
  0.00000000E+00  0.00000000E+00  0.00000000E+00
  0.00000000E+00  0.00000000E+00  0.00000000E+00
  0.00000000E+00  0.00000000E+00  0.00000000E+00
  0.00000000E+00  0.00000000E+00  0.00000000E+00
  0.00000000E+00  0.00000000E+00  0.00000000E+00
  0.00000000E+00  0.00000000E+00  0.00000000E+00
  0.00000000E+00  0.00000000E+00  0.00000000E+00
  0.00000000E+00  0.00000000E+00  0.00000000E+00
  0.00000000E+00  0.00000000E+00  0.00000000E+00
  0.00000000E+00  0.00000000E+00  0.00000000E+00
  0.00000000E+00  0.00000000E+00  0.00000000E+00
  0.00000000E+00  0.00000000E+00  0.00000000E+00
