MA-Pb-I                                 
   1.00000000000000     
     5.8892445321787328   -0.0048008041779134    0.0656571269169357
    -0.0053334077729528    5.8544884580747532    0.0012821621476484
     0.0639774282558244    0.0006908469467942    6.0230320529523143
   C    N    H    Pb   Br
     1     1     6     1     3
Direct
  0.7618184956568875  0.8993316557789073  0.3306395516829581
  0.8507545457164223  0.0208917364738958  0.1716852316503109
  0.8883748807410849  0.8228317261679486  0.4417379249790408
  0.9365072645425290  0.4680366809509251  0.0087196972662869
  0.3807695081115643  0.0363580619977372  0.8840015238631486
  0.0123624268980066  0.4561544135391983  0.1159329212364190
  0.0236268195965032  0.0482977157173096  0.1531520358475392
  0.7495494077082610  0.1001055747621268  0.0580859448482081
  0.4819944490690566  0.4692617050018871  0.5898412070214791
  0.4719692813566781  0.4526269971793872  0.0856635772664433
  0.4765166485150056 -0.0280503155812103  0.6344405350823168
 -0.0163948805871289  0.4487094422700555  0.5846893295428764
 
  0.00000000E+00  0.00000000E+00  0.00000000E+00
  0.00000000E+00  0.00000000E+00  0.00000000E+00
  0.00000000E+00  0.00000000E+00  0.00000000E+00
  0.00000000E+00  0.00000000E+00  0.00000000E+00
  0.00000000E+00  0.00000000E+00  0.00000000E+00
  0.00000000E+00  0.00000000E+00  0.00000000E+00
  0.00000000E+00  0.00000000E+00  0.00000000E+00
  0.00000000E+00  0.00000000E+00  0.00000000E+00
  0.00000000E+00  0.00000000E+00  0.00000000E+00
  0.00000000E+00  0.00000000E+00  0.00000000E+00
  0.00000000E+00  0.00000000E+00  0.00000000E+00
  0.00000000E+00  0.00000000E+00  0.00000000E+00
