MA-Pb-I                                 
   1.0000000000000000     
     5.8857348584972646   -0.0000116429338373    0.0677019167604032
    -0.0000113721705701    5.8535748976198549   -0.0000048572736550
     0.0678468051824150   -0.0000044748208102    6.0066012361495211
   C    N    H    Pb   Br
     1     1     6     1     3
Direct
  0.0714462056895767  0.8911982722061327  0.4225333464015506 
  0.0353692162318115  0.0563508927014360  0.1828600732235305 
  0.0208536811046622  0.0415586041119834  0.5142708292700078 
  0.6404891671380172  0.8329935017766439  0.0553248892827694 
  0.9961529767336906  0.7633992627311275  0.8140097925865383 
  0.7957760229545525  0.1399292837368111  0.5797084769632828 
  0.1335473710145176  0.0684035839921657  0.3316937067595795 
  0.0799448365316068  0.9070030476714139  0.1068968904596018 
  0.5277766331219279  0.5693618215866016  0.4413996999988013 
  0.4343825501137815  0.4999407920523851  0.9818407606070920
  0.4217797225331665  0.9999416700962840  0.5296464633737443
  0.9610032600387797  0.4999434169907246  0.4296279775420402

  0.00000000E+00  0.00000000E+00  0.00000000E+00
  0.00000000E+00  0.00000000E+00  0.00000000E+00
  0.00000000E+00  0.00000000E+00  0.00000000E+00
  0.00000000E+00  0.00000000E+00  0.00000000E+00
  0.00000000E+00  0.00000000E+00  0.00000000E+00
  0.00000000E+00  0.00000000E+00  0.00000000E+00
  0.00000000E+00  0.00000000E+00  0.00000000E+00
  0.00000000E+00  0.00000000E+00  0.00000000E+00
  0.00000000E+00  0.00000000E+00  0.00000000E+00
  0.00000000E+00  0.00000000E+00  0.00000000E+00
  0.00000000E+00  0.00000000E+00  0.00000000E+00
  0.00000000E+00  0.00000000E+00  0.00000000E+00
