MA-Pb-I                                 
   1.00000000000000     
     5.8857348584972646   -0.0000116429338373    0.0677019167604032
    -0.0000113721705701    5.8535748976198549   -0.0000048572736550
     0.0678468051824150   -0.0000044748208102    6.0066012361495211
   C    N    H    Pb   Br
     1     1     6     1     3
Direct
  0.6177926638076924  0.1208715745561226  0.4189981782924098
  0.1788333780763011  0.2853281082844408  0.2158982598368873
  0.7774004062913431  0.0539708173900830  0.4846049100009406
  0.4723040614390014  0.8606910097957829  0.8095068879298798
  0.0526945174312769 -0.2481943017641977  0.6665880347487615
  0.5516077470955116  0.0445972591503980  0.2664554929132663
  0.0271031464813810  0.2001804127678859  0.2368889779970262
  0.2048541001830114  0.3058281469128114  0.0469736225694965
  0.5982250384367136  0.5597216559729831  0.4081998441515023
  0.5866531786479102  0.6081884042894811 -0.0954356069465268
  0.3831671552734993  0.0893393589213192  0.6490031095245753
  0.0928121865381050  0.5827477066872325  0.4584874331905804
 
  0.00000000E+00  0.00000000E+00  0.00000000E+00
  0.00000000E+00  0.00000000E+00  0.00000000E+00
  0.00000000E+00  0.00000000E+00  0.00000000E+00
  0.00000000E+00  0.00000000E+00  0.00000000E+00
  0.00000000E+00  0.00000000E+00  0.00000000E+00
  0.00000000E+00  0.00000000E+00  0.00000000E+00
  0.00000000E+00  0.00000000E+00  0.00000000E+00
  0.00000000E+00  0.00000000E+00  0.00000000E+00
  0.00000000E+00  0.00000000E+00  0.00000000E+00
  0.00000000E+00  0.00000000E+00  0.00000000E+00
  0.00000000E+00  0.00000000E+00  0.00000000E+00
  0.00000000E+00  0.00000000E+00  0.00000000E+00
