MA-Pb-I                                 
   1.0000000000000000     
     5.8857348584972646   -0.0000116429338373    0.0677019167604032
    -0.0000113721705701    5.8535748976198549   -0.0000048572736550
     0.0678468051824150   -0.0000044748208102    6.0066012361495211
   C    N    H    Pb   Br
     1     1     6     1     3
Direct
  0.7860277105714539  0.8972241217430234  0.2731707949366609 
  0.2842611274690396  0.3894676411173366  0.3190888934415913 
  0.8431868586196103  0.7284569921308564  0.2303445591152364 
  0.3545808167181799  0.9083245131400294  0.6044822089364335 
  0.9824529606775555  0.0580051556656307  0.8527114101992518 
  0.5008884556104403  0.1230613883543483  0.0781584466669472 
  0.1461957031027450  0.2768967564264864  0.3332805258319775 
  0.2266053432546418  0.5443417985767689  0.3715481707307690 
  0.6020830709923491  0.5376659066704615  0.5622689328270506 
  0.4343825501137815  0.4999407920523851  0.9818407606070920
  0.4217797225331665  0.9999416700962840  0.5296464633737443
  0.9610032600387797  0.4999434169907246  0.4296279775420402

  0.00000000E+00  0.00000000E+00  0.00000000E+00
  0.00000000E+00  0.00000000E+00  0.00000000E+00
  0.00000000E+00  0.00000000E+00  0.00000000E+00
  0.00000000E+00  0.00000000E+00  0.00000000E+00
  0.00000000E+00  0.00000000E+00  0.00000000E+00
  0.00000000E+00  0.00000000E+00  0.00000000E+00
  0.00000000E+00  0.00000000E+00  0.00000000E+00
  0.00000000E+00  0.00000000E+00  0.00000000E+00
  0.00000000E+00  0.00000000E+00  0.00000000E+00
  0.00000000E+00  0.00000000E+00  0.00000000E+00
  0.00000000E+00  0.00000000E+00  0.00000000E+00
  0.00000000E+00  0.00000000E+00  0.00000000E+00
