MA-Pb-I                                 
   1.0000000000000000     
     6.2884187138843197    0.0009579558247489    0.0690993966769832
     0.0005978161223733    6.2287690412624563   -0.0003732067435118
     0.0697053521696059    0.0000445224912706    6.3737103126460282
   C    N    H    Pb   I 
     1     1     6     1     3
Direct
  0.6119350326216069  0.4875196801029274  0.5382412587319094 
  0.4307686311554845  0.3415884012866394  0.5229534182376353 
  0.5622842743526950  0.6211404775205964  0.6359342451191262 
  0.6556699119765229  0.5429202914762681  0.3766275374160244 
  0.7476042905703546  0.4038626551760388  0.6136244023367697 
  0.2975167617028153  0.4143259417585864  0.4513895583688373 
  0.3837266379672989  0.2840159634160770  0.6734719169586102 
  0.4662409601423577  0.2103581357939918  0.4321585472822790 
  0.0475662813064727  0.1188679714346501  0.9304448868669584 
  0.9094873486598019  0.9999820990246278  0.4751454839169895
  0.8992708791277906  0.4999580210910821  0.0236644354684188
  0.4323428768805755  0.9999948727175436  0.9224794036872126

  0.00000000E+00  0.00000000E+00  0.00000000E+00
  0.00000000E+00  0.00000000E+00  0.00000000E+00
  0.00000000E+00  0.00000000E+00  0.00000000E+00
  0.00000000E+00  0.00000000E+00  0.00000000E+00
  0.00000000E+00  0.00000000E+00  0.00000000E+00
  0.00000000E+00  0.00000000E+00  0.00000000E+00
  0.00000000E+00  0.00000000E+00  0.00000000E+00
  0.00000000E+00  0.00000000E+00  0.00000000E+00
  0.00000000E+00  0.00000000E+00  0.00000000E+00
  0.00000000E+00  0.00000000E+00  0.00000000E+00
  0.00000000E+00  0.00000000E+00  0.00000000E+00
  0.00000000E+00  0.00000000E+00  0.00000000E+00
