MA-Pb-I                                 
   1.00000000000000     
     5.8857348584972646   -0.0000116429338373    0.0677019167604032
    -0.0000113721705701    5.8535748976198549   -0.0000048572736550
     0.0678468051824150   -0.0000044748208102    6.0066012361495211
   C    N    H    Pb   Br
     1     1     6     1     3
Direct
  0.9132692303313594  0.9122836381117423 -0.1667618321296769
  0.8976217436510424  0.0479619977609908 -0.0048460673819104
  0.9046059831017985 -0.0432717400921284  0.6521117140034127
  0.9324579736431428  0.7240988557906426  0.8730674217051853
  0.4054219038564619  0.9067129712437257  0.0025792704889211
 -0.0110793709176422 -0.5435038872021734  0.2286394717239238
  0.3999982552193563  0.0453070307973076  0.0043541333893739
  0.8704643855443592  0.2176547879323789 -0.0533075004958641
  0.4250846802775933  0.4671011366525856  0.4970744531402345
  0.4060613766654962  0.4713836846330593  0.0042690506891359
  0.4243826543400044 -0.0368995535198225  0.5085483257058512
  0.9326769124037526  0.4726191842973247  0.4685626904970457
 
  0.00000000E+00  0.00000000E+00  0.00000000E+00
  0.00000000E+00  0.00000000E+00  0.00000000E+00
  0.00000000E+00  0.00000000E+00  0.00000000E+00
  0.00000000E+00  0.00000000E+00  0.00000000E+00
  0.00000000E+00  0.00000000E+00  0.00000000E+00
  0.00000000E+00  0.00000000E+00  0.00000000E+00
  0.00000000E+00  0.00000000E+00  0.00000000E+00
  0.00000000E+00  0.00000000E+00  0.00000000E+00
  0.00000000E+00  0.00000000E+00  0.00000000E+00
  0.00000000E+00  0.00000000E+00  0.00000000E+00
  0.00000000E+00  0.00000000E+00  0.00000000E+00
  0.00000000E+00  0.00000000E+00  0.00000000E+00
