MA-Pb-I                                 
   1.00000000000000     
     5.8892445321787328   -0.0048008041779134    0.0656571269169357
    -0.0053334077729528    5.8544884580747532    0.0012821621476484
     0.0639774282558244    0.0006908469467942    6.0230320529523143
   C    N    H    Pb   Br
     1     1     6     1     3
Direct
  0.8542566021687948  0.4160497328711850  0.0614318832531712 
  0.6144401146707545  0.7145349946587618  0.6465368081739120 
  0.9939785316735076  0.3096327025890824  0.0106396322427834 
  0.1243603095865500  0.4768364947087578  0.0628223692380611 
  0.6880136462382042  0.9452388245633299  0.9903550394737075 
  0.1829480706710496  0.3614619259428685  0.6351604541860862 
  0.7350947683432754  0.8144711713046677  0.5609845080971686 
  0.4809463973668188  0.8187822007948813  0.6814985001891053 
  0.5658493739235601  0.4253086044862519  0.4556340693446999 
  0.4352272726238539  0.4972012503325617  0.9832769846011953
  0.4159970891092727  0.9985715009710078  0.5336351900357424
  0.9598885390497535  0.4995712578389358  0.4264000332832606
 
  0.00000000E+00  0.00000000E+00  0.00000000E+00
  0.00000000E+00  0.00000000E+00  0.00000000E+00
  0.00000000E+00  0.00000000E+00  0.00000000E+00
  0.00000000E+00  0.00000000E+00  0.00000000E+00
  0.00000000E+00  0.00000000E+00  0.00000000E+00
  0.00000000E+00  0.00000000E+00  0.00000000E+00
  0.00000000E+00  0.00000000E+00  0.00000000E+00
  0.00000000E+00  0.00000000E+00  0.00000000E+00
  0.00000000E+00  0.00000000E+00  0.00000000E+00
  0.00000000E+00  0.00000000E+00  0.00000000E+00
  0.00000000E+00  0.00000000E+00  0.00000000E+00
  0.00000000E+00  0.00000000E+00  0.00000000E+00
