MA-Pb-I                                 
   1.0000000000000000     
     6.2884187138843197    0.0009579558247489    0.0690993966769832
     0.0005978161223733    6.2287690412624563   -0.0003732067435118
     0.0697053521696059    0.0000445224912706    6.3737103126460282
   C    N    H    Pb   I 
     1     1     6     1     3
Direct
  0.5534653800450560  0.5416531059737385  0.4013245957866293 
  0.3450391699476780  0.6107801053475227  0.4796246221349023 
  0.5708454384148406  0.6025976943364090  0.2405535610545230 
  0.5597908640363657  0.3654125296912735  0.4008664973279592 
  0.6794051715956854  0.6076594270090778  0.5055819609907082 
  0.2196776231939620  0.5511035646219453  0.3853304567353154 
  0.3318197569672259  0.7780934140186879  0.4834791058425894 
  0.3172709357064279  0.5585770199056880  0.6320291507234553 
  0.7595883705840780  0.2109873178543828  0.6915865978364006 
  0.9094873486598019  0.9999820990246278  0.4751454839169895
  0.8992708791277906  0.4999580210910821  0.0236644354684188
  0.4323428768805755  0.9999948727175436  0.9224794036872126

  0.00000000E+00  0.00000000E+00  0.00000000E+00
  0.00000000E+00  0.00000000E+00  0.00000000E+00
  0.00000000E+00  0.00000000E+00  0.00000000E+00
  0.00000000E+00  0.00000000E+00  0.00000000E+00
  0.00000000E+00  0.00000000E+00  0.00000000E+00
  0.00000000E+00  0.00000000E+00  0.00000000E+00
  0.00000000E+00  0.00000000E+00  0.00000000E+00
  0.00000000E+00  0.00000000E+00  0.00000000E+00
  0.00000000E+00  0.00000000E+00  0.00000000E+00
  0.00000000E+00  0.00000000E+00  0.00000000E+00
  0.00000000E+00  0.00000000E+00  0.00000000E+00
  0.00000000E+00  0.00000000E+00  0.00000000E+00
