MA-Pb-I                                 
   1.00000000000000     
     5.8892445321787328   -0.0048008041779134    0.0656571269169357
    -0.0053334077729528    5.8544884580747532    0.0012821621476484
     0.0639774282558244    0.0006908469467942    6.0230320529523143
   C    N    H    Pb   Br
     1     1     6     1     3
Direct
  0.2081243850242994  0.1560406315366948  0.8687755260741695
  0.0225020983777119  0.2317613527992055  0.9593229331847462
  0.3225926455299588  0.0514693984056477  0.9674674858659504
  0.2403098869161833  0.1631386941164156  0.6884586911213061
  0.7214445931758240  0.9858821989751737  0.8918869503204090
  0.6552415582016035  0.8663964507457770 -0.1114386197375031
 -0.0096873024904118  0.2174358006223865  0.1255713947112885
  0.9079105868990337  0.3183135923120170  0.8642699331839914
  0.5190159206352912  0.5071410057173200  0.3891047225561244
  0.5175828095431005  0.4935201295361869  0.8882323016244994
  0.5219050821004401  0.0080032840485940  0.3856994667014061
  0.0182016268923660  0.5047042474475533  0.3977271336407291
 
  0.00000000E+00  0.00000000E+00  0.00000000E+00
  0.00000000E+00  0.00000000E+00  0.00000000E+00
  0.00000000E+00  0.00000000E+00  0.00000000E+00
  0.00000000E+00  0.00000000E+00  0.00000000E+00
  0.00000000E+00  0.00000000E+00  0.00000000E+00
  0.00000000E+00  0.00000000E+00  0.00000000E+00
  0.00000000E+00  0.00000000E+00  0.00000000E+00
  0.00000000E+00  0.00000000E+00  0.00000000E+00
  0.00000000E+00  0.00000000E+00  0.00000000E+00
  0.00000000E+00  0.00000000E+00  0.00000000E+00
  0.00000000E+00  0.00000000E+00  0.00000000E+00
  0.00000000E+00  0.00000000E+00  0.00000000E+00
