MA-Pb-I                                 
   1.00000000000000     
     5.8892445321787328   -0.0048008041779134    0.0656571269169357
    -0.0053334077729528    5.8544884580747532    0.0012821621476484
     0.0639774282558244    0.0006908469467942    6.0230320529523143
   C    N    H    Pb   Br
     1     1     6     1     3
Direct
  0.3175830410123562  0.1765279969407398  0.7826310325449695 
  0.0251721749903620  0.2391485091237090  0.9328154658693726 
  0.3649364338028285  0.0811870137879928  0.9312729102375732 
  0.0978892797286686  0.3204430109039061  0.7762461663058651 
  0.5683775882834704  0.8900102832910075  0.6640363493332697 
  0.7467778692861494  0.6898078425599099  0.0671157228799057 
  0.2023793654171561  0.2473022435342288  0.9526928193165356 
  0.9889720075478833  0.3214953883119022  0.7851032056453933 
  0.5219432299536513  0.5425404886670711  0.4798520391940196 
  0.4352272726238539  0.4972012503325617  0.9832769846011953
  0.4159970891092727  0.9985715009710078  0.5336351900357424
  0.9598885390497535  0.4995712578389358  0.4264000332832606
 
  0.00000000E+00  0.00000000E+00  0.00000000E+00
  0.00000000E+00  0.00000000E+00  0.00000000E+00
  0.00000000E+00  0.00000000E+00  0.00000000E+00
  0.00000000E+00  0.00000000E+00  0.00000000E+00
  0.00000000E+00  0.00000000E+00  0.00000000E+00
  0.00000000E+00  0.00000000E+00  0.00000000E+00
  0.00000000E+00  0.00000000E+00  0.00000000E+00
  0.00000000E+00  0.00000000E+00  0.00000000E+00
  0.00000000E+00  0.00000000E+00  0.00000000E+00
  0.00000000E+00  0.00000000E+00  0.00000000E+00
  0.00000000E+00  0.00000000E+00  0.00000000E+00
  0.00000000E+00  0.00000000E+00  0.00000000E+00
