MA-Pb-I                                 
   1.0000000000000000     
     5.8857348584972646   -0.0000116429338373    0.0677019167604032
    -0.0000113721705701    5.8535748976198549   -0.0000048572736550
     0.0678468051824150   -0.0000044748208102    6.0066012361495211
   C    N    H    Pb   Br
     1     1     6     1     3
Direct
  0.3403820585912142  0.3938676525447951  0.3030082866856474 
  0.1603022149972072  0.9100835638031002  0.2306978551860743 
  0.2073317250729290  0.4017210729692279  0.1772325686154910 
  0.1298401983308346  0.9943571999063178  0.2046924342345278 
  0.8175744932172091  0.4532621164277646  0.5012589534369234 
  0.4593294364474502  0.6364654601771685  0.8762340683743777 
  0.1383913553674909  0.0803456160455593  0.1810348336116416 
  0.2788882111383496  0.9109671346091660  0.3571840231954369 
  0.4928027572318111  0.5092369411579029  0.5080510199864978 
  0.4343825501137815  0.4999407920523851  0.9818407606070920
  0.4217797225331665  0.9999416700962840  0.5296464633737443
  0.9610032600387797  0.4999434169907246  0.4296279775420402

  0.00000000E+00  0.00000000E+00  0.00000000E+00
  0.00000000E+00  0.00000000E+00  0.00000000E+00
  0.00000000E+00  0.00000000E+00  0.00000000E+00
  0.00000000E+00  0.00000000E+00  0.00000000E+00
  0.00000000E+00  0.00000000E+00  0.00000000E+00
  0.00000000E+00  0.00000000E+00  0.00000000E+00
  0.00000000E+00  0.00000000E+00  0.00000000E+00
  0.00000000E+00  0.00000000E+00  0.00000000E+00
  0.00000000E+00  0.00000000E+00  0.00000000E+00
  0.00000000E+00  0.00000000E+00  0.00000000E+00
  0.00000000E+00  0.00000000E+00  0.00000000E+00
  0.00000000E+00  0.00000000E+00  0.00000000E+00
