MA-Pb-I                                 
   1.00000000000000     
     5.8892445321787328   -0.0048008041779134    0.0656571269169357
    -0.0053334077729528    5.8544884580747532    0.0012821621476484
     0.0639774282558244    0.0006908469467942    6.0230320529523143
   C    N    H    Pb   Br
     1     1     6     1     3
Direct
  0.6721252784629360  0.0751893744758351  0.8562907801918279
  0.8472258673350873  0.1073214330145793  0.7668396747681866
  0.5419160859390111  0.9888002153380996 -0.0315959141129806
  0.0036310796574301  0.5759062148852188  0.9603194709123942
 -0.0678424978695669  0.5810130147046270  0.8502262814723884
  0.2121473576460144  0.0167480786039517  0.0749233717075152
  0.9469801613644169  0.2121277746198128  0.6691965176715536
  0.2054193402417023  0.0198217279309519 -0.0508382244418704
  0.4595523388359563  0.5164485291706589  0.4355544886698295
  0.4812272691186897  0.5208791089482313  0.9306477158169200
  0.4282613182759720  0.0238474864240049  0.4509558110389530
  0.9640208244118752  0.5211641607242906  0.4241926083825301
 
  0.00000000E+00  0.00000000E+00  0.00000000E+00
  0.00000000E+00  0.00000000E+00  0.00000000E+00
  0.00000000E+00  0.00000000E+00  0.00000000E+00
  0.00000000E+00  0.00000000E+00  0.00000000E+00
  0.00000000E+00  0.00000000E+00  0.00000000E+00
  0.00000000E+00  0.00000000E+00  0.00000000E+00
  0.00000000E+00  0.00000000E+00  0.00000000E+00
  0.00000000E+00  0.00000000E+00  0.00000000E+00
  0.00000000E+00  0.00000000E+00  0.00000000E+00
  0.00000000E+00  0.00000000E+00  0.00000000E+00
  0.00000000E+00  0.00000000E+00  0.00000000E+00
  0.00000000E+00  0.00000000E+00  0.00000000E+00
