MA-Pb-I                                 
   1.00000000000000     
     6.2884187138843197    0.0009579558247489    0.0690993966769832
     0.0005978161223733    6.2287690412624563   -0.0003732067435118
     0.0697053521696059    0.0000445224912706    6.3737103126460282
   C    N    H    Pb   I 
     1     1     6     1     3
Direct
  0.6331559817877220  0.4620319846416849  0.7761179405680111
  0.6169764744841626  0.4857072280900548  0.5457987511777149
  0.6890398330540149  0.2967233949461981  0.8051844091996893
  0.4745533845205812  0.4895902475051334  0.8497235074414143
  0.7460245715184136  0.5762769710005593  0.8342162635305295
  0.4927978305207044  0.3948986224220273  0.4919464751003816
  0.7526995850035993  0.4317627902902110  0.4697326689664448
  0.5990177974519696  0.6449376843515500  0.4972197329070853
  0.1628703813199517  0.0522819422046073  0.2293383927920398
  0.6564114472779988  0.0062593212009887  0.2563202589458222
  0.1777467389310380  0.5529087000142154  0.2040550988491883
  0.1524449768596875  0.0926559670242200  0.7456353183178090
 
  0.00000000E+00  0.00000000E+00  0.00000000E+00
  0.00000000E+00  0.00000000E+00  0.00000000E+00
  0.00000000E+00  0.00000000E+00  0.00000000E+00
  0.00000000E+00  0.00000000E+00  0.00000000E+00
  0.00000000E+00  0.00000000E+00  0.00000000E+00
  0.00000000E+00  0.00000000E+00  0.00000000E+00
  0.00000000E+00  0.00000000E+00  0.00000000E+00
  0.00000000E+00  0.00000000E+00  0.00000000E+00
  0.00000000E+00  0.00000000E+00  0.00000000E+00
  0.00000000E+00  0.00000000E+00  0.00000000E+00
  0.00000000E+00  0.00000000E+00  0.00000000E+00
  0.00000000E+00  0.00000000E+00  0.00000000E+00
