MA-Pb-I                                 
   1.00000000000000     
     5.8892445321787328   -0.0048008041779134    0.0656571269169357
    -0.0053334077729528    5.8544884580747532    0.0012821621476484
     0.0639774282558244    0.0006908469467942    6.0230320529523143
   C    N    H    Pb   Br
     1     1     6     1     3
Direct
  0.5294121733269421  0.6758124792837054  0.3154646633100653 
  0.4103095694182327  0.1689711105140890  0.2407745647417813 
  0.6470668501490900  0.7262544171553921  0.1849286812709781 
  0.9413638177296263  0.2211845502230542  0.2017009180506645 
  0.9820480467624919  0.8499177263717217  0.4868068529598976 
  0.4643863773966382  0.3801631081680900  0.8991566405045675 
  0.5062719241987550  0.0267956261911400  0.1913646565616312 
  0.3097091818964569  0.1167263275456309  0.3713900965074264 
  0.4063720708801730  0.4916296566696053  0.5326599724194538 
  0.4352272726238539  0.4972012503325617  0.9832769846011953
  0.4159970891092727  0.9985715009710078  0.5336351900357424
  0.9598885390497535  0.4995712578389358  0.4264000332832606
 
  0.00000000E+00  0.00000000E+00  0.00000000E+00
  0.00000000E+00  0.00000000E+00  0.00000000E+00
  0.00000000E+00  0.00000000E+00  0.00000000E+00
  0.00000000E+00  0.00000000E+00  0.00000000E+00
  0.00000000E+00  0.00000000E+00  0.00000000E+00
  0.00000000E+00  0.00000000E+00  0.00000000E+00
  0.00000000E+00  0.00000000E+00  0.00000000E+00
  0.00000000E+00  0.00000000E+00  0.00000000E+00
  0.00000000E+00  0.00000000E+00  0.00000000E+00
  0.00000000E+00  0.00000000E+00  0.00000000E+00
  0.00000000E+00  0.00000000E+00  0.00000000E+00
  0.00000000E+00  0.00000000E+00  0.00000000E+00
