MA-Pb-I                                 
   1.00000000000000     
     5.8892445321787328   -0.0048008041779134    0.0656571269169357
    -0.0053334077729528    5.8544884580747532    0.0012821621476484
     0.0639774282558244    0.0006908469467942    6.0230320529523143
   C    N    H    Pb   Br
     1     1     6     1     3
Direct
  0.2481002764951343  0.7147246566434382  0.5691533615516758 
  0.4483082322490965  0.8369308636715188  0.6156336450736577 
  0.1481413337684443  0.6407051013944829  0.7031532492045888 
  0.0478963886428145  0.7779835355251454  0.9843272206626581 
  0.5549320300896550  0.3238096951716106  0.1063394677674916 
  0.8276796838755868  0.4319689995871148  0.5646925650277412 
  0.3482153357086488  0.9644870531704804  0.6902983052986061 
  0.5477515325198881  0.9157163850240063  0.4980996324992333 
  0.4543937380582992  0.5614424165663439  0.4776118477116741 
  0.4352272726238539  0.4972012503325617  0.9832769846011953
  0.4159970891092727  0.9985715009710078  0.5336351900357424
  0.9598885390497535  0.4995712578389358  0.4264000332832606
 
  0.00000000E+00  0.00000000E+00  0.00000000E+00
  0.00000000E+00  0.00000000E+00  0.00000000E+00
  0.00000000E+00  0.00000000E+00  0.00000000E+00
  0.00000000E+00  0.00000000E+00  0.00000000E+00
  0.00000000E+00  0.00000000E+00  0.00000000E+00
  0.00000000E+00  0.00000000E+00  0.00000000E+00
  0.00000000E+00  0.00000000E+00  0.00000000E+00
  0.00000000E+00  0.00000000E+00  0.00000000E+00
  0.00000000E+00  0.00000000E+00  0.00000000E+00
  0.00000000E+00  0.00000000E+00  0.00000000E+00
  0.00000000E+00  0.00000000E+00  0.00000000E+00
  0.00000000E+00  0.00000000E+00  0.00000000E+00
