MA-Pb-I                                 
   1.00000000000000     
     5.8892445321787328   -0.0048008041779134    0.0656571269169357
    -0.0053334077729528    5.8544884580747532    0.0012821621476484
     0.0639774282558244    0.0006908469467942    6.0230320529523143
   C    N    H    Pb   Br
     1     1     6     1     3
Direct
  0.7272448193890901  0.4901742599239030  0.2263107173181913 
  0.8830105885136301  0.8753655242887074  0.4838513399440940 
  0.7047113757178508  0.6421470934208221  0.1271988790922916 
  0.8619219016652786  0.8429758761467363  0.0121223074894576 
  0.5295559438547010  0.1354566065030165  0.5433792131964538 
  0.3642849523222350  0.5924579960607692  0.8279675933098734 
  0.0220899276979579  0.8935211928477909  0.3734371650611462 
  0.9163324998231426  0.7366563635111225  0.5816255256908138 
  0.4938501863200312  0.4635985955667707  0.4474230217194672 
  0.4352272726238539  0.4972012503325617  0.9832769846011953
  0.4159970891092727  0.9985715009710078  0.5336351900357424
  0.9598885390497535  0.4995712578389358  0.4264000332832606
 
  0.00000000E+00  0.00000000E+00  0.00000000E+00
  0.00000000E+00  0.00000000E+00  0.00000000E+00
  0.00000000E+00  0.00000000E+00  0.00000000E+00
  0.00000000E+00  0.00000000E+00  0.00000000E+00
  0.00000000E+00  0.00000000E+00  0.00000000E+00
  0.00000000E+00  0.00000000E+00  0.00000000E+00
  0.00000000E+00  0.00000000E+00  0.00000000E+00
  0.00000000E+00  0.00000000E+00  0.00000000E+00
  0.00000000E+00  0.00000000E+00  0.00000000E+00
  0.00000000E+00  0.00000000E+00  0.00000000E+00
  0.00000000E+00  0.00000000E+00  0.00000000E+00
  0.00000000E+00  0.00000000E+00  0.00000000E+00
