MA-Pb-I                                 
   1.00000000000000     
     5.8892445321787328   -0.0048008041779134    0.0656571269169357
    -0.0053334077729528    5.8544884580747532    0.0012821621476484
     0.0639774282558244    0.0006908469467942    6.0230320529523143
   C    N    H    Pb   Br
     1     1     6     1     3
Direct
  0.0396231563219660 -0.8918004622724900  0.1841061225690213
 -0.0307354351669836  0.1397516265071267 -0.0152080455001801
  0.4918201084696613  0.9322517292200885 -0.0407603904069842
 -0.0683395685671698  0.0129115389643079  0.3046607805195474
 -0.5152012823486724  0.0720051081203956  0.9404579808354153
  0.2199912549902927  0.1383195135326426  0.2121489984241504
  0.8038485572119219  0.1065273163887108  0.9363792283996155
  0.0814235702354846  0.2091543836135102  0.8685016838703838
  0.4881368159196008  0.4953143537292155  0.4444314937382094
  0.4734714905116740  0.4962271890017674  0.9413598782881700
  0.5017366657551300 -0.0083670570430587  0.4564383178537870
  0.9885532600136359  0.4873222440343714  0.4224537397962757
 
  0.00000000E+00  0.00000000E+00  0.00000000E+00
  0.00000000E+00  0.00000000E+00  0.00000000E+00
  0.00000000E+00  0.00000000E+00  0.00000000E+00
  0.00000000E+00  0.00000000E+00  0.00000000E+00
  0.00000000E+00  0.00000000E+00  0.00000000E+00
  0.00000000E+00  0.00000000E+00  0.00000000E+00
  0.00000000E+00  0.00000000E+00  0.00000000E+00
  0.00000000E+00  0.00000000E+00  0.00000000E+00
  0.00000000E+00  0.00000000E+00  0.00000000E+00
  0.00000000E+00  0.00000000E+00  0.00000000E+00
  0.00000000E+00  0.00000000E+00  0.00000000E+00
  0.00000000E+00  0.00000000E+00  0.00000000E+00
