MA-Pb-I                                 
   1.00000000000000     
     5.6267413476480952    0.0000416704727542    0.0620815770375229
    -0.0000317550626923    5.5940171136319288    0.0000254647194750
     0.0578866146782483   -0.0000342937909938    5.7648243532177101
   C    N    H    Pb   Cl
     1     1     6     1     3
Direct
  0.5598106201759102  0.5493994166020330  0.5621580551236190
  0.3355737479989922  0.5512703622347808  0.4312817583467297
  0.5180955916822726  0.5505388713994550  0.7501220928143143
  0.6646441784184189  0.7098036991234691  0.5162815169529431
  0.6608870999124145  0.3860362094107609  0.5175952264932095
  0.2318441953903822  0.7048096868732311  0.4664471800268158
  0.2292123305931452  0.3998259789051004  0.4673552959854544
  0.3629756615770394  0.5504146843769236  0.2523756652628596
 -0.0014512021542457  0.0550701526680972  0.9644208449360346
  0.0054031024672623  0.0536172968567021  0.4683112207085729
  0.0012778126068106  0.5551865016661317 -0.0382954366745767
  0.4966275969419633  0.0559637153054541  0.9634205364439332
 
  0.00000000E+00  0.00000000E+00  0.00000000E+00
  0.00000000E+00  0.00000000E+00  0.00000000E+00
  0.00000000E+00  0.00000000E+00  0.00000000E+00
  0.00000000E+00  0.00000000E+00  0.00000000E+00
  0.00000000E+00  0.00000000E+00  0.00000000E+00
  0.00000000E+00  0.00000000E+00  0.00000000E+00
  0.00000000E+00  0.00000000E+00  0.00000000E+00
  0.00000000E+00  0.00000000E+00  0.00000000E+00
  0.00000000E+00  0.00000000E+00  0.00000000E+00
  0.00000000E+00  0.00000000E+00  0.00000000E+00
  0.00000000E+00  0.00000000E+00  0.00000000E+00
  0.00000000E+00  0.00000000E+00  0.00000000E+00
