MA-Pb-I                                 
   1.00000000000000     
     5.8892445321787328   -0.0048008041779134    0.0656571269169357
    -0.0053334077729528    5.8544884580747532    0.0012821621476484
     0.0639774282558244    0.0006908469467942    6.0230320529523143
   C    N    H    Pb   Br
     1     1     6     1     3
Direct
  0.6877126448543386  0.8802110397657430  0.6167980411045141
 -0.1191981828976109  0.8947208004245305  0.7730687329056655
  0.7307946351413057  0.9550100566738570  0.4526234013626528
  0.5274269967678850 -0.0613187777647191  0.6965933976815125
  0.0284925812209619  0.8256568591005130  0.6963496418185640
  0.4233911715251623  0.1928420722806700  0.1894172391062059
 -0.0756046052861217  0.0542170702560768  0.8305227817721776
  0.8360039486490594  0.7908704953907855 -0.0914245456145719
  0.6581727853608543  0.4500698996521312  0.5920777020242393
  0.6688243470632095  0.4467475629393861  0.0989397414941469
  0.2986109645825071 -0.0258869092058823  0.2224667004367731
  0.1634960337155801  0.4472696710754198  0.6047641576922084
 
  0.00000000E+00  0.00000000E+00  0.00000000E+00
  0.00000000E+00  0.00000000E+00  0.00000000E+00
  0.00000000E+00  0.00000000E+00  0.00000000E+00
  0.00000000E+00  0.00000000E+00  0.00000000E+00
  0.00000000E+00  0.00000000E+00  0.00000000E+00
  0.00000000E+00  0.00000000E+00  0.00000000E+00
  0.00000000E+00  0.00000000E+00  0.00000000E+00
  0.00000000E+00  0.00000000E+00  0.00000000E+00
  0.00000000E+00  0.00000000E+00  0.00000000E+00
  0.00000000E+00  0.00000000E+00  0.00000000E+00
  0.00000000E+00  0.00000000E+00  0.00000000E+00
  0.00000000E+00  0.00000000E+00  0.00000000E+00
