MA-Pb-I                                 
   1.00000000000000     
     6.2884187138843197    0.0009579558247489    0.0690993966769832
     0.0005978161223733    6.2287690412624563   -0.0003732067435118
     0.0697053521696059    0.0000445224912706    6.3737103126460282
   C    N    H    Pb   I 
     1     1     6     1     3
Direct
  0.4706714523337847  0.5204061888677390  0.4195819843601375
  0.5268083308143005  0.4931297633811433  0.6421466508057445
  0.3001375304836099  0.5579146375779462  0.4093809647988230
  0.5070280869982303  0.3710792840252136  0.3328065725915002
  0.5641727239276531  0.6545303623549030  0.3518785564008323
  0.4517687595759396  0.3601715140248127  0.7117383935542835
  0.4852092408100502  0.6301015068290075  0.7322843213633382
  0.6902886861067552  0.4714903431631340  0.6654211097870412
  0.9818684646053071  0.9759264555968008  0.9678637609491785
  0.9841950000391068 -0.0233412770967521  0.4705263605219085
  0.9867610284598687  0.4743305242390236 -0.0332626874273462
  0.4809028441019046 -0.0244204670150939  0.9650108140897049
 
  0.00000000E+00  0.00000000E+00  0.00000000E+00
  0.00000000E+00  0.00000000E+00  0.00000000E+00
  0.00000000E+00  0.00000000E+00  0.00000000E+00
  0.00000000E+00  0.00000000E+00  0.00000000E+00
  0.00000000E+00  0.00000000E+00  0.00000000E+00
  0.00000000E+00  0.00000000E+00  0.00000000E+00
  0.00000000E+00  0.00000000E+00  0.00000000E+00
  0.00000000E+00  0.00000000E+00  0.00000000E+00
  0.00000000E+00  0.00000000E+00  0.00000000E+00
  0.00000000E+00  0.00000000E+00  0.00000000E+00
  0.00000000E+00  0.00000000E+00  0.00000000E+00
  0.00000000E+00  0.00000000E+00  0.00000000E+00
