MA-Pb-I                                 
   1.0000000000000000     
     5.6267413476480952    0.0000416704727542    0.0620815770375229
    -0.0000317550626923    5.5940171136319288    0.0000254647194750
     0.0578866146782483   -0.0000342937909938    5.7648243532177101
   C    N    H    Pb   Cl
     1     1     6     1     3
Direct
  0.5408162273919198  0.4062301889128309  0.4317836079732126 
  0.5241417479030770  0.5196233681353940  0.6647882738877811 
  0.4131219233753293  0.2643363889426030  0.4290087379795754 
  0.7216031765238496  0.3340770388104357  0.4066595335866213 
  0.4984253084381361  0.5371650195236790  0.2918546706972640 
  0.5639289731653765  0.4006843004457512  0.8033124155040132 
  0.3543616658591451  0.5913832587208543  0.6955111722042835 
  0.6406166165864244  0.6566783453489413  0.6808081154830836 
  0.3476678984893331  0.2172488173226828  0.8358517123839174 
  0.9135858188955126  0.0000223702692494  0.4744099460480626
  0.9004629834686284  0.5000248740275239  0.0232973215355017
  0.4490472465535831  0.0000309138028598  0.9238306684389244

  0.00000000E+00  0.00000000E+00  0.00000000E+00
  0.00000000E+00  0.00000000E+00  0.00000000E+00
  0.00000000E+00  0.00000000E+00  0.00000000E+00
  0.00000000E+00  0.00000000E+00  0.00000000E+00
  0.00000000E+00  0.00000000E+00  0.00000000E+00
  0.00000000E+00  0.00000000E+00  0.00000000E+00
  0.00000000E+00  0.00000000E+00  0.00000000E+00
  0.00000000E+00  0.00000000E+00  0.00000000E+00
  0.00000000E+00  0.00000000E+00  0.00000000E+00
  0.00000000E+00  0.00000000E+00  0.00000000E+00
  0.00000000E+00  0.00000000E+00  0.00000000E+00
  0.00000000E+00  0.00000000E+00  0.00000000E+00
