MA-Pb-I                                 
   1.0000000000000000     
     5.8857348584972646   -0.0000116429338373    0.0677019167604032
    -0.0000113721705701    5.8535748976198549   -0.0000048572736550
     0.0678468051824150   -0.0000044748208102    6.0066012361495211
   C    N    H    Pb   Br
     1     1     6     1     3
Direct
  0.4127711113514879  0.1980595266951464  0.9373594494566493 
  0.0916397589661031  0.2245392772390063  0.8494894359364916 
  0.4121843458175277  0.0315035217256023  0.0137947268653607 
  0.0514730623525795  0.0250010220728936  0.6139236015968870 
  0.4529265612671129  0.2587127647099708  0.1262314873740005 
  0.5232744580254330  0.9049070256479489  0.2860281478797341 
  0.9358751248787189  0.1451071527604575  0.8125626938126971 
  0.0813256314364668  0.3849170823955430  0.7844144925072161 
  0.5073489553902845  0.5133262389904412  0.5006735736453939 
  0.4343825501137815  0.4999407920523851  0.9818407606070920
  0.4217797225331665  0.9999416700962840  0.5296464633737443
  0.9610032600387797  0.4999434169907246  0.4296279775420402

  0.00000000E+00  0.00000000E+00  0.00000000E+00
  0.00000000E+00  0.00000000E+00  0.00000000E+00
  0.00000000E+00  0.00000000E+00  0.00000000E+00
  0.00000000E+00  0.00000000E+00  0.00000000E+00
  0.00000000E+00  0.00000000E+00  0.00000000E+00
  0.00000000E+00  0.00000000E+00  0.00000000E+00
  0.00000000E+00  0.00000000E+00  0.00000000E+00
  0.00000000E+00  0.00000000E+00  0.00000000E+00
  0.00000000E+00  0.00000000E+00  0.00000000E+00
  0.00000000E+00  0.00000000E+00  0.00000000E+00
  0.00000000E+00  0.00000000E+00  0.00000000E+00
  0.00000000E+00  0.00000000E+00  0.00000000E+00
