MA-Pb-I                                 
   1.00000000000000     
     5.8892445321787328   -0.0048008041779134    0.0656571269169357
    -0.0053334077729528    5.8544884580747532    0.0012821621476484
     0.0639774282558244    0.0006908469467942    6.0230320529523143
   C    N    H    Pb   Br
     1     1     6     1     3
Direct
  0.6868496395905315  0.4000231789676205  0.2332109518615545 
  0.5676609345589703  0.7389429418792224  0.6798585272078641 
  0.8153779673469059  0.2928690903790956  0.1595555043766830 
  0.9278813220450538  0.4764734819776543  0.9670228496179135 
  0.4982127823507956  0.9365086264620432  0.0125081022550791 
  0.1065575721963916  0.3913980716388301  0.5194282012722213 
  0.6656317845831469  0.8358318079899696  0.5663761890526569 
  0.4419884052437147  0.8431935195994754  0.7368550611013795 
  0.4643488929262056  0.4383120034597107  0.4695882773774280 
  0.4352272726238539  0.4972012503325617  0.9832769846011953
  0.4159970891092727  0.9985715009710078  0.5336351900357424
  0.9598885390497535  0.4995712578389358  0.4264000332832606
 
  0.00000000E+00  0.00000000E+00  0.00000000E+00
  0.00000000E+00  0.00000000E+00  0.00000000E+00
  0.00000000E+00  0.00000000E+00  0.00000000E+00
  0.00000000E+00  0.00000000E+00  0.00000000E+00
  0.00000000E+00  0.00000000E+00  0.00000000E+00
  0.00000000E+00  0.00000000E+00  0.00000000E+00
  0.00000000E+00  0.00000000E+00  0.00000000E+00
  0.00000000E+00  0.00000000E+00  0.00000000E+00
  0.00000000E+00  0.00000000E+00  0.00000000E+00
  0.00000000E+00  0.00000000E+00  0.00000000E+00
  0.00000000E+00  0.00000000E+00  0.00000000E+00
  0.00000000E+00  0.00000000E+00  0.00000000E+00
