MA-Pb-I                                 
   1.0000000000000000     
     6.2884187138843197    0.0009579558247489    0.0690993966769832
     0.0005978161223733    6.2287690412624563   -0.0003732067435118
     0.0697053521696059    0.0000445224912706    6.3737103126460282
   C    N    H    Pb   I 
     1     1     6     1     3
Direct
  0.4645362731188993  0.5567902184487659  0.5017137226585197 
  0.6158940930926504  0.4518764929350562  0.3587632355808349 
  0.5151395105096376  0.7211623494234611  0.5185882541447209 
  0.4668602460538036  0.4757675415168485  0.6583371158757575 
  0.3032459604419023  0.5495348341272431  0.4308613539850839 
  0.7721058787006568  0.4543371647883379  0.4200822348962913 
  0.6187287961269756  0.5234577383199394  0.2069362190437590 
  0.5778642882009853  0.2946495051352407  0.3351669319694195 
  0.0708693056782315  0.8816394738473701  0.4826264203654628 
  0.9094873486598019  0.9999820990246278  0.4751454839169895
  0.8992708791277906  0.4999580210910821  0.0236644354684188
  0.4323428768805755  0.9999948727175436  0.9224794036872126

  0.00000000E+00  0.00000000E+00  0.00000000E+00
  0.00000000E+00  0.00000000E+00  0.00000000E+00
  0.00000000E+00  0.00000000E+00  0.00000000E+00
  0.00000000E+00  0.00000000E+00  0.00000000E+00
  0.00000000E+00  0.00000000E+00  0.00000000E+00
  0.00000000E+00  0.00000000E+00  0.00000000E+00
  0.00000000E+00  0.00000000E+00  0.00000000E+00
  0.00000000E+00  0.00000000E+00  0.00000000E+00
  0.00000000E+00  0.00000000E+00  0.00000000E+00
  0.00000000E+00  0.00000000E+00  0.00000000E+00
  0.00000000E+00  0.00000000E+00  0.00000000E+00
  0.00000000E+00  0.00000000E+00  0.00000000E+00
