MA-Pb-I                                 
   1.0000000000000000     
     6.2884187138843197    0.0009579558247489    0.0690993966769832
     0.0005978161223733    6.2287690412624563   -0.0003732067435118
     0.0697053521696059    0.0000445224912706    6.3737103126460282
   C    N    H    Pb   I 
     1     1     6     1     3
Direct
  0.5516325494079584  0.6128278528660235  0.5926646867863051 
  0.4937656239448017  0.4298976444978709  0.4602302538470370 
  0.5823998478643432  0.7456009255282171  0.4864181837379686 
  0.6965333893033306  0.5738979809963072  0.6853424835022429 
  0.4176253040327405  0.6509029222301317  0.7007369357293034 
  0.6171778995838183  0.3872851813039953  0.3547703811559975 
  0.3558090084058921  0.4594654881397559  0.3692518606203388 
  0.4621861315053475  0.2973525905280133  0.5505514674251190 
  0.8270989354984813  0.7738486458042710  0.3827486091040518 
  0.9094873486598019  0.9999820990246278  0.4751454839169895
  0.8992708791277906  0.4999580210910821  0.0236644354684188
  0.4323428768805755  0.9999948727175436  0.9224794036872126

  0.00000000E+00  0.00000000E+00  0.00000000E+00
  0.00000000E+00  0.00000000E+00  0.00000000E+00
  0.00000000E+00  0.00000000E+00  0.00000000E+00
  0.00000000E+00  0.00000000E+00  0.00000000E+00
  0.00000000E+00  0.00000000E+00  0.00000000E+00
  0.00000000E+00  0.00000000E+00  0.00000000E+00
  0.00000000E+00  0.00000000E+00  0.00000000E+00
  0.00000000E+00  0.00000000E+00  0.00000000E+00
  0.00000000E+00  0.00000000E+00  0.00000000E+00
  0.00000000E+00  0.00000000E+00  0.00000000E+00
  0.00000000E+00  0.00000000E+00  0.00000000E+00
  0.00000000E+00  0.00000000E+00  0.00000000E+00
