MA-Pb-I                                 
   1.00000000000000     
     5.8857348584972646   -0.0000116429338373    0.0677019167604032
    -0.0000113721705701    5.8535748976198549   -0.0000048572736550
     0.0678468051824150   -0.0000044748208102    6.0066012361495211
   C    N    H    Pb   Br
     1     1     6     1     3
Direct
  0.8379534696044119  0.4360116168965528  0.7333702526392475
  0.6577657388482765  0.1435209949422917  0.2847582885694021
  0.8159270677560279  0.5598172421409428  0.8681033332204661
  0.7024044221182224  0.6190858164162382  0.3142871487646761
  0.3549934325974899  0.7902073053674942  0.8994693595088081
  0.8748099068241086  0.2592591759489146  0.7812579951834417
  0.6481519864833101  0.1906435161276826  0.1180441153827849
  0.6068790054040467 -0.0260912455733775  0.2981954570545497
  0.5024939293638867  0.4008240734915335  0.5133694756492782
  0.3445166856260647  0.5412592301514096  0.0346539092505682
  0.3777805483681003 -0.0441568451379820  0.6618607722729024
  0.0036060523412875  0.5354159501898504  0.4762830448794195
 
  0.00000000E+00  0.00000000E+00  0.00000000E+00
  0.00000000E+00  0.00000000E+00  0.00000000E+00
  0.00000000E+00  0.00000000E+00  0.00000000E+00
  0.00000000E+00  0.00000000E+00  0.00000000E+00
  0.00000000E+00  0.00000000E+00  0.00000000E+00
  0.00000000E+00  0.00000000E+00  0.00000000E+00
  0.00000000E+00  0.00000000E+00  0.00000000E+00
  0.00000000E+00  0.00000000E+00  0.00000000E+00
  0.00000000E+00  0.00000000E+00  0.00000000E+00
  0.00000000E+00  0.00000000E+00  0.00000000E+00
  0.00000000E+00  0.00000000E+00  0.00000000E+00
  0.00000000E+00  0.00000000E+00  0.00000000E+00
