MA-Pb-I                                 
   1.00000000000000     
     5.6267413476480952    0.0000416704727542    0.0620815770375229
    -0.0000317550626923    5.5940171136319288    0.0000254647194750
     0.0578866146782483   -0.0000342937909938    5.7648243532177101
   C    N    H    Pb   Cl
     1     1     6     1     3
Direct
  0.5177110372726452  0.5837018589314308  0.4513900119511172
  0.4730049840564153  0.4531153538499417  0.6719431546323731
  0.4883442663128742  0.7771124007390803  0.4808939650035642
  0.3929908483722801  0.5191766085019487  0.3199959860832606
  0.7027974766199536  0.5517930167541830  0.3920968023166277
  0.3027928593417409  0.4845882517052469  0.7454071610815977
  0.5960882407650578  0.5017717734266053  0.7973799635540039
  0.4882176086454822  0.2683031762619015  0.6558544045348476
  0.9940628070585714 -0.0178208512909401  0.0067476253051128
  0.9959862496142480 -0.0201655465542103  0.5119199481930942
  0.9929621085735374  0.4853315375151555  0.0007439129530951
  0.4937525647792500 -0.0210022524221651  0.0010926899404500
 
  0.00000000E+00  0.00000000E+00  0.00000000E+00
  0.00000000E+00  0.00000000E+00  0.00000000E+00
  0.00000000E+00  0.00000000E+00  0.00000000E+00
  0.00000000E+00  0.00000000E+00  0.00000000E+00
  0.00000000E+00  0.00000000E+00  0.00000000E+00
  0.00000000E+00  0.00000000E+00  0.00000000E+00
  0.00000000E+00  0.00000000E+00  0.00000000E+00
  0.00000000E+00  0.00000000E+00  0.00000000E+00
  0.00000000E+00  0.00000000E+00  0.00000000E+00
  0.00000000E+00  0.00000000E+00  0.00000000E+00
  0.00000000E+00  0.00000000E+00  0.00000000E+00
  0.00000000E+00  0.00000000E+00  0.00000000E+00
