MA-Pb-I                                 
   1.00000000000000     
     6.2884187138843197    0.0009579558247489    0.0690993966769832
     0.0005978161223733    6.2287690412624563   -0.0003732067435118
     0.0697053521696059    0.0000445224912706    6.3737103126460282
   C    N    H    Pb   I 
     1     1     6     1     3
Direct
  0.5837553413960623  0.4586644954487238  0.4988567983873439
  0.4228471202557951  0.5159465141059764  0.3494632526446874
  0.5875987307393362  0.5840132323138999  0.6221399699712287
  0.7384226971281357  0.4471390172504401  0.4167834437242501
  0.5410577531474944  0.3038405059917641  0.5699780836952286
  0.4492128177808357  0.6567620252050527  0.2682277365738934
  0.2783936082949726  0.5382460874851238  0.4368282251163912
  0.3919103127032428  0.3970985030488867  0.2435401250043313
  0.2376208106673547  0.9784501727006071  0.6993472367008862
  0.7595496696800897  0.9700079680841962  0.7031480004347831
  0.1247562813950190  0.4767127899811958 -0.2418060750801014
  0.2604165017526710 -0.0032559860229894  0.1736054821956234
 
  0.00000000E+00  0.00000000E+00  0.00000000E+00
  0.00000000E+00  0.00000000E+00  0.00000000E+00
  0.00000000E+00  0.00000000E+00  0.00000000E+00
  0.00000000E+00  0.00000000E+00  0.00000000E+00
  0.00000000E+00  0.00000000E+00  0.00000000E+00
  0.00000000E+00  0.00000000E+00  0.00000000E+00
  0.00000000E+00  0.00000000E+00  0.00000000E+00
  0.00000000E+00  0.00000000E+00  0.00000000E+00
  0.00000000E+00  0.00000000E+00  0.00000000E+00
  0.00000000E+00  0.00000000E+00  0.00000000E+00
  0.00000000E+00  0.00000000E+00  0.00000000E+00
  0.00000000E+00  0.00000000E+00  0.00000000E+00
