MA-Pb-I                                 
   1.0000000000000000     
     6.2884187138843197    0.0009579558247489    0.0690993966769832
     0.0005978161223733    6.2287690412624563   -0.0003732067435118
     0.0697053521696059    0.0000445224912706    6.3737103126460282
   C    N    H    Pb   I 
     1     1     6     1     3
Direct
  0.5731703953667596  0.4536530068197342  0.5038679253090690 
  0.3853215636227544  0.5412903383635327  0.3971747401639318 
  0.6020270612988955  0.5498293818545151  0.6445129842514821 
  0.7113152785077699  0.4622475473796944  0.3945834915372946 
  0.5410924835117840  0.2864652607870101  0.5497648626715411 
  0.4086911236557929  0.7006141587374141  0.3498674418771593 
  0.2492075107050536  0.5358395862009585  0.4952900146214428 
  0.3481594890448438  0.4577142130712246  0.2616852985420335 
  0.3154556345591847  0.8360368395455339  0.7220761973219636 
  0.9094873486598019  0.9999820990246278  0.4751454839169895
  0.8992708791277906  0.4999580210910821  0.0236644354684188
  0.4323428768805755  0.9999948727175436  0.9224794036872126

  0.00000000E+00  0.00000000E+00  0.00000000E+00
  0.00000000E+00  0.00000000E+00  0.00000000E+00
  0.00000000E+00  0.00000000E+00  0.00000000E+00
  0.00000000E+00  0.00000000E+00  0.00000000E+00
  0.00000000E+00  0.00000000E+00  0.00000000E+00
  0.00000000E+00  0.00000000E+00  0.00000000E+00
  0.00000000E+00  0.00000000E+00  0.00000000E+00
  0.00000000E+00  0.00000000E+00  0.00000000E+00
  0.00000000E+00  0.00000000E+00  0.00000000E+00
  0.00000000E+00  0.00000000E+00  0.00000000E+00
  0.00000000E+00  0.00000000E+00  0.00000000E+00
  0.00000000E+00  0.00000000E+00  0.00000000E+00
