MA-Pb-I                                 
   1.00000000000000     
     5.6267413476480952    0.0000416704727542    0.0620815770375229
    -0.0000317550626923    5.5940171136319288    0.0000254647194750
     0.0578866146782483   -0.0000342937909938    5.7648243532177101
   C    N    H    Pb   Cl
     1     1     6     1     3
Direct
  0.5231265037727106  0.5965505448145351  0.7067951696731445
  0.4870337285776351  0.6548088526475009  0.4984577515735695
  0.3749080294419752  0.5614376584884719  0.8297960682125671
  0.7099271256058400  0.5554117219258554  0.7633960678721502
  0.5511030607666348  0.1509854599280351  0.3565000374164338
  0.6240722284871979  0.6931555473367118  0.3793019169900264
  0.3184836315694111  0.6827233076996582  0.4364588299065964
  0.5412870440610138  0.2813498946333364  0.3977107042492664
  0.0301412461708253  0.0451168939524885  0.0048959694259634
  0.0274839292516039  0.0402533623068614  0.5154576462950309
  0.0240706733859873  0.5579430725989308  0.0452661794393341
  0.5356717243545817  0.0303632452267202 -0.0376816457457714
 
  0.00000000E+00  0.00000000E+00  0.00000000E+00
  0.00000000E+00  0.00000000E+00  0.00000000E+00
  0.00000000E+00  0.00000000E+00  0.00000000E+00
  0.00000000E+00  0.00000000E+00  0.00000000E+00
  0.00000000E+00  0.00000000E+00  0.00000000E+00
  0.00000000E+00  0.00000000E+00  0.00000000E+00
  0.00000000E+00  0.00000000E+00  0.00000000E+00
  0.00000000E+00  0.00000000E+00  0.00000000E+00
  0.00000000E+00  0.00000000E+00  0.00000000E+00
  0.00000000E+00  0.00000000E+00  0.00000000E+00
  0.00000000E+00  0.00000000E+00  0.00000000E+00
  0.00000000E+00  0.00000000E+00  0.00000000E+00
