MA-Pb-I                                 
   1.00000000000000     
     5.6267413476480952    0.0000416704727542    0.0620815770375229
    -0.0000317550626923    5.5940171136319288    0.0000254647194750
     0.0578866146782483   -0.0000342937909938    5.7648243532177101
   C    N    H    Pb   Cl
     1     1     6     1     3
Direct
  0.4663760388099296  0.6181885321919998  0.4009995127760020
  0.4741129697279975  0.4653429751346063  0.6112791916740293
  0.6229551951243941  0.5785127301080845  0.2896238564980815
  0.4692918029384192  0.8087771865747838  0.4540466644996431
  0.3006270815697979  0.5806047079125035  0.3090156095949782
  0.6261060978927143  0.4966911696805574  0.7093023352873790
  0.4768257904094942  0.2835121043757769  0.5722824023818964
  0.3242884461334561  0.4908229778372948  0.7211235018151735
  0.9763094477242702 -0.0086282430898813  0.9455174780852840
  0.9756445641337458 -0.0114942282751842  0.4476896739875664
  0.9768482423378592  0.4936664143594694 -0.0596465433918045
  0.4771617634233773 -0.0102624045825959  0.9415575636126016
 
  0.00000000E+00  0.00000000E+00  0.00000000E+00
  0.00000000E+00  0.00000000E+00  0.00000000E+00
  0.00000000E+00  0.00000000E+00  0.00000000E+00
  0.00000000E+00  0.00000000E+00  0.00000000E+00
  0.00000000E+00  0.00000000E+00  0.00000000E+00
  0.00000000E+00  0.00000000E+00  0.00000000E+00
  0.00000000E+00  0.00000000E+00  0.00000000E+00
  0.00000000E+00  0.00000000E+00  0.00000000E+00
  0.00000000E+00  0.00000000E+00  0.00000000E+00
  0.00000000E+00  0.00000000E+00  0.00000000E+00
  0.00000000E+00  0.00000000E+00  0.00000000E+00
  0.00000000E+00  0.00000000E+00  0.00000000E+00
