MA-Pb-I                                 
   1.0000000000000000     
     5.6267413476480952    0.0000416704727542    0.0620815770375229
    -0.0000317550626923    5.5940171136319288    0.0000254647194750
     0.0578866146782483   -0.0000342937909938    5.7648243532177101
   C    N    H    Pb   Cl
     1     1     6     1     3
Direct
  0.4854480097013686  0.6179367890113928  0.4030898493756671 
  0.4981883015990812  0.4502007189471225  0.6009016828440901 
  0.6060909358779204  0.5558159069103668  0.2688003634793261 
  0.5397848185731757  0.7962280035762876  0.4645794515090044 
  0.3025273500582610  0.6219267698563917  0.3320607025935114 
  0.6698779553347195  0.4415683723692209  0.6741588212004572 
  0.4470939595807845  0.2778967758371419  0.5497218622199659 
  0.3879684345304175  0.4976363314146324  0.7358407087474435 
  0.9664716260520063  0.0264460962052210  0.8920998688288717 
  0.9135858188955126  0.0000223702692494  0.4744099460480626
  0.9004629834686284  0.5000248740275239  0.0232973215355017
  0.4490472465535831  0.0000309138028598  0.9238306684389244

  0.00000000E+00  0.00000000E+00  0.00000000E+00
  0.00000000E+00  0.00000000E+00  0.00000000E+00
  0.00000000E+00  0.00000000E+00  0.00000000E+00
  0.00000000E+00  0.00000000E+00  0.00000000E+00
  0.00000000E+00  0.00000000E+00  0.00000000E+00
  0.00000000E+00  0.00000000E+00  0.00000000E+00
  0.00000000E+00  0.00000000E+00  0.00000000E+00
  0.00000000E+00  0.00000000E+00  0.00000000E+00
  0.00000000E+00  0.00000000E+00  0.00000000E+00
  0.00000000E+00  0.00000000E+00  0.00000000E+00
  0.00000000E+00  0.00000000E+00  0.00000000E+00
  0.00000000E+00  0.00000000E+00  0.00000000E+00
