MA-Pb-I                                 
   1.0000000000000000     
     6.2884187138843197    0.0009579558247489    0.0690993966769832
     0.0005978161223733    6.2287690412624563   -0.0003732067435118
     0.0697053521696059    0.0000445224912706    6.3737103126460282
   C    N    H    Pb   I 
     1     1     6     1     3
Direct
  0.3869406419453502  0.5184857215800586  0.5073406366734666 
  0.5965523561514287  0.4657691736038570  0.4199632021655691 
  0.3721281901256211  0.4363595322475603  0.6586664942962649 
  0.2619952193032939  0.4636789199125521  0.3956006788156169 
  0.3762258725240351  0.6928502367353148  0.5312042760156412 
  0.6139822858402824  0.3008849768884374  0.3939325323621876 
  0.7209850904873560  0.5156811770784289  0.5210010154709451 
  0.6220172157716169  0.5383822044685208  0.2757332955234478 
  0.7768237367605970  0.1150747839281923  0.7938398397731625 
  0.9094873486598019  0.9999820990246278  0.4751454839169895
  0.8992708791277906  0.4999580210910821  0.0236644354684188
  0.4323428768805755  0.9999948727175436  0.9224794036872126

  0.00000000E+00  0.00000000E+00  0.00000000E+00
  0.00000000E+00  0.00000000E+00  0.00000000E+00
  0.00000000E+00  0.00000000E+00  0.00000000E+00
  0.00000000E+00  0.00000000E+00  0.00000000E+00
  0.00000000E+00  0.00000000E+00  0.00000000E+00
  0.00000000E+00  0.00000000E+00  0.00000000E+00
  0.00000000E+00  0.00000000E+00  0.00000000E+00
  0.00000000E+00  0.00000000E+00  0.00000000E+00
  0.00000000E+00  0.00000000E+00  0.00000000E+00
  0.00000000E+00  0.00000000E+00  0.00000000E+00
  0.00000000E+00  0.00000000E+00  0.00000000E+00
  0.00000000E+00  0.00000000E+00  0.00000000E+00
