MA-Pb-I                                 
   1.00000000000000     
     5.8892445321787328   -0.0048008041779134    0.0656571269169357
    -0.0053334077729528    5.8544884580747532    0.0012821621476484
     0.0639774282558244    0.0006908469467942    6.0230320529523143
   C    N    H    Pb   Br
     1     1     6     1     3
Direct
  0.7153177425210899  0.9673621856294768  0.8875524256510551
  0.0329527000923211  0.0323179395019204  0.2446105284958384
  0.7294791113020253  0.7712786237938452  0.9229368642606475
  0.8557532748504681 -0.0190614650091691  0.7546338787806652
  0.1514175943036513  0.9054783708921013  0.2061077876579291
  0.6777807421427182  0.2475643818912013  0.0986527432902074
 -0.0120737547242844 -0.0036535149251139  0.4113049092341247
  0.8836618481388869 -0.0153377004998248  0.1515218620980677
  0.4476843637026854  0.4463791877591219  0.6581338425334831
  0.4771993570290732  0.4345233213521333  0.1590156167139341
  0.4372173752129364 -0.0342260291271682  0.6773953776227103
  0.9549359684675034  0.4636552681363050  0.6709017843026474
 
  0.00000000E+00  0.00000000E+00  0.00000000E+00
  0.00000000E+00  0.00000000E+00  0.00000000E+00
  0.00000000E+00  0.00000000E+00  0.00000000E+00
  0.00000000E+00  0.00000000E+00  0.00000000E+00
  0.00000000E+00  0.00000000E+00  0.00000000E+00
  0.00000000E+00  0.00000000E+00  0.00000000E+00
  0.00000000E+00  0.00000000E+00  0.00000000E+00
  0.00000000E+00  0.00000000E+00  0.00000000E+00
  0.00000000E+00  0.00000000E+00  0.00000000E+00
  0.00000000E+00  0.00000000E+00  0.00000000E+00
  0.00000000E+00  0.00000000E+00  0.00000000E+00
  0.00000000E+00  0.00000000E+00  0.00000000E+00
