MA-Pb-I                                 
   1.00000000000000     
     5.8857348584972646   -0.0000116429338373    0.0677019167604032
    -0.0000113721705701    5.8535748976198549   -0.0000048572736550
     0.0678468051824150   -0.0000044748208102    6.0066012361495211
   C    N    H    Pb   Br
     1     1     6     1     3
Direct
  0.6237893978948683  0.4242037531932629  0.1141648846267904
  0.6880917433799678  0.8858013682414697  0.8808973506519936
  0.6501336475580844  0.2371020436612233  0.0946938236087190
  0.7199840731329594  0.5265060069292543 -0.0138065956424289
  0.7317987530888302  0.9037196391512408  0.0446044637699575
  0.0374484918517288  0.4605296800149634  0.7645934955888904
  0.7659007547752451  0.0117277546077165  0.7908475114631398
  0.5149076308462052  0.9179386194915244  0.8725067563722371
  0.4265608867809734  0.4739936838820061  0.4812953455732140
  0.2892177753314569  0.4674538165073890  0.0130434878334741
  0.4107130865388417 -0.0253091948287681  0.4663676215002739
 -0.0814472496645413  0.4592593464207133  0.5434953369303651
 
  0.00000000E+00  0.00000000E+00  0.00000000E+00
  0.00000000E+00  0.00000000E+00  0.00000000E+00
  0.00000000E+00  0.00000000E+00  0.00000000E+00
  0.00000000E+00  0.00000000E+00  0.00000000E+00
  0.00000000E+00  0.00000000E+00  0.00000000E+00
  0.00000000E+00  0.00000000E+00  0.00000000E+00
  0.00000000E+00  0.00000000E+00  0.00000000E+00
  0.00000000E+00  0.00000000E+00  0.00000000E+00
  0.00000000E+00  0.00000000E+00  0.00000000E+00
  0.00000000E+00  0.00000000E+00  0.00000000E+00
  0.00000000E+00  0.00000000E+00  0.00000000E+00
  0.00000000E+00  0.00000000E+00  0.00000000E+00
