MA-Pb-I                                 
   1.0000000000000000     
     5.8857348584972646   -0.0000116429338373    0.0677019167604032
    -0.0000113721705701    5.8535748976198549   -0.0000048572736550
     0.0678468051824150   -0.0000044748208102    6.0066012361495211
   C    N    H    Pb   Br
     1     1     6     1     3
Direct
  0.6946725041297486  0.4994382921376277  0.2595476929402427 
  0.4908014119465180  0.7866166559985014  0.7833697364642729 
  0.8191839056919521  0.3782308047606078  0.2013303879311772 
  0.9501146704985670  0.4680567291888064  0.0749035823711989 
  0.4767859050157668  0.9650797299224116  0.1098246110229694 
  0.0919164732078444  0.3869665201993371  0.6386865018171397 
  0.6054452708742877  0.8700219071001916  0.6745762733598969 
  0.3698184883210042  0.9033973797005106  0.8256493372015921 
  0.4611948291432094  0.4852926191246181  0.5437001576452525 
  0.4343825501137815  0.4999407920523851  0.9818407606070920
  0.4217797225331665  0.9999416700962840  0.5296464633737443
  0.9610032600387797  0.4999434169907246  0.4296279775420402

  0.00000000E+00  0.00000000E+00  0.00000000E+00
  0.00000000E+00  0.00000000E+00  0.00000000E+00
  0.00000000E+00  0.00000000E+00  0.00000000E+00
  0.00000000E+00  0.00000000E+00  0.00000000E+00
  0.00000000E+00  0.00000000E+00  0.00000000E+00
  0.00000000E+00  0.00000000E+00  0.00000000E+00
  0.00000000E+00  0.00000000E+00  0.00000000E+00
  0.00000000E+00  0.00000000E+00  0.00000000E+00
  0.00000000E+00  0.00000000E+00  0.00000000E+00
  0.00000000E+00  0.00000000E+00  0.00000000E+00
  0.00000000E+00  0.00000000E+00  0.00000000E+00
  0.00000000E+00  0.00000000E+00  0.00000000E+00
