MA-Pb-I                                 
   1.00000000000000     
     6.2884187138843197    0.0009579558247489    0.0690993966769832
     0.0005978161223733    6.2287690412624563   -0.0003732067435118
     0.0697053521696059    0.0000445224912706    6.3737103126460282
   C    N    H    Pb   I 
     1     1     6     1     3
Direct
 -0.1691771368681213  0.0124367293162459  0.0041657499621853
  0.4972723335703724  0.4666362224205914  0.4283404285146215
  0.1215096877079500  0.2974182101319289  0.6943558130847552
  0.1946450232007130  0.7571814501742848  0.5571579628359751
  0.4442627636555051  0.6351625405940610  0.9244793320026645
  0.3962988846442503  0.4526981878032607  0.3019372581695633
  0.5914798595687475  0.3277419535020383  0.4269732408598256
  0.5962372425309150  0.5981053389965231  0.3952858763203889
  0.2619791362974362 -0.4572751355206104 -0.2739669730923618
  0.8442370001154677  0.0182749896702413  0.3660526623855874
  0.8522724929493503  0.6335169424516518 -0.0302739723795870
  0.4699861440874855  0.0643426547361018  0.9495589932523228
 
  0.00000000E+00  0.00000000E+00  0.00000000E+00
  0.00000000E+00  0.00000000E+00  0.00000000E+00
  0.00000000E+00  0.00000000E+00  0.00000000E+00
  0.00000000E+00  0.00000000E+00  0.00000000E+00
  0.00000000E+00  0.00000000E+00  0.00000000E+00
  0.00000000E+00  0.00000000E+00  0.00000000E+00
  0.00000000E+00  0.00000000E+00  0.00000000E+00
  0.00000000E+00  0.00000000E+00  0.00000000E+00
  0.00000000E+00  0.00000000E+00  0.00000000E+00
  0.00000000E+00  0.00000000E+00  0.00000000E+00
  0.00000000E+00  0.00000000E+00  0.00000000E+00
  0.00000000E+00  0.00000000E+00  0.00000000E+00
