MA-Pb-I                                 
   1.00000000000000     
     5.6267413476480952    0.0000416704727542    0.0620815770375229
    -0.0000317550626923    5.5940171136319288    0.0000254647194750
     0.0578866146782483   -0.0000342937909938    5.7648243532177101
   C    N    H    Pb   Cl
     1     1     6     1     3
Direct
  0.4112786829414981  0.4837562236297668  0.5188251996056186
  0.6501592412856610  0.4712424537416059  0.4064252623825239
  0.3026388809138055  0.3329190235498889  0.4575848564350628
  0.3264910445426403  0.6553550267163245  0.4735832677456197
  0.4276530851808892  0.4718041319293631  0.7089033815868824
  0.6472189898875831  0.4722366307301799  0.2254620165505659
  0.7426097422623482  0.3140101261970970  0.4499189980742575
  0.7564798361474562  0.6189385338788573  0.4506007480748135
 -0.0153477134566238 -0.0285879295047549  0.9455228997384916
  0.9779493499480355 -0.0271133520235604  0.4479264922083733
  0.9822401814672660  0.4712069072086036 -0.0555015261160064
  0.4863043146804233 -0.0291980419507502  0.9450948464132465
 
  0.00000000E+00  0.00000000E+00  0.00000000E+00
  0.00000000E+00  0.00000000E+00  0.00000000E+00
  0.00000000E+00  0.00000000E+00  0.00000000E+00
  0.00000000E+00  0.00000000E+00  0.00000000E+00
  0.00000000E+00  0.00000000E+00  0.00000000E+00
  0.00000000E+00  0.00000000E+00  0.00000000E+00
  0.00000000E+00  0.00000000E+00  0.00000000E+00
  0.00000000E+00  0.00000000E+00  0.00000000E+00
  0.00000000E+00  0.00000000E+00  0.00000000E+00
  0.00000000E+00  0.00000000E+00  0.00000000E+00
  0.00000000E+00  0.00000000E+00  0.00000000E+00
  0.00000000E+00  0.00000000E+00  0.00000000E+00
