MA-Pb-I                                 
   1.0000000000000000     
     5.6267413476480952    0.0000416704727542    0.0620815770375229
    -0.0000317550626923    5.5940171136319288    0.0000254647194750
     0.0578866146782483   -0.0000342937909938    5.7648243532177101
   C    N    H    Pb   Cl
     1     1     6     1     3
Direct
  0.4222805715629884  0.5469347656104594  0.6484929316824616 
  0.5954344428344847  0.5131037456278669  0.4579662284384928 
  0.2641059408950828  0.6181480389140834  0.5687631281569976 
  0.4936355730565927  0.6736092855058844  0.7803384736284221 
  0.3827843824208822  0.3741388854180793  0.7327702251594458 
  0.6384203223119138  0.6740534030715860  0.3733146787670912 
  0.5343288068511581  0.3928501165461330  0.3286456168547487 
  0.7509153692121566  0.4456518156729769  0.5202800777550705 
  0.9199710564125827  0.8911804892908558  0.2234999482504427 
  0.9135858188955126  0.0000223702692494  0.4744099460480626
  0.9004629834686284  0.5000248740275239  0.0232973215355017
  0.4490472465535831  0.0000309138028598  0.9238306684389244

  0.00000000E+00  0.00000000E+00  0.00000000E+00
  0.00000000E+00  0.00000000E+00  0.00000000E+00
  0.00000000E+00  0.00000000E+00  0.00000000E+00
  0.00000000E+00  0.00000000E+00  0.00000000E+00
  0.00000000E+00  0.00000000E+00  0.00000000E+00
  0.00000000E+00  0.00000000E+00  0.00000000E+00
  0.00000000E+00  0.00000000E+00  0.00000000E+00
  0.00000000E+00  0.00000000E+00  0.00000000E+00
  0.00000000E+00  0.00000000E+00  0.00000000E+00
  0.00000000E+00  0.00000000E+00  0.00000000E+00
  0.00000000E+00  0.00000000E+00  0.00000000E+00
  0.00000000E+00  0.00000000E+00  0.00000000E+00
