MA-Pb-I                                 
   1.00000000000000     
     5.8892445321787328   -0.0048008041779134    0.0656571269169357
    -0.0053334077729528    5.8544884580747532    0.0012821621476484
     0.0639774282558244    0.0006908469467942    6.0230320529523143
   C    N    H    Pb   Br
     1     1     6     1     3
Direct
  0.0667234838433358  0.0158475944868253  0.1338649279908486 
  0.0727956475521440  0.3855319620447654  0.1413444593475051 
  0.9951505179490016  0.8551952847888936  0.1838129071601046 
  0.4735686040527467  0.8229082340579812  0.3018920744991136 
  0.8984381734895215  0.1474272894853713  0.5072171287597462 
  0.7266558103527346  0.9252172104940930  0.8213094786132278 
  0.1354125257236226  0.2581834367499581  0.0330602934821542 
  0.1354474508477981  0.5352648020750095  0.0816351584333681 
  0.4993441383533566  0.4626897490325103  0.5445973595569666 
  0.4352272726238539  0.4972012503325617  0.9832769846011953
  0.4159970891092727  0.9985715009710078  0.5336351900357424
  0.9598885390497535  0.4995712578389358  0.4264000332832606
 
  0.00000000E+00  0.00000000E+00  0.00000000E+00
  0.00000000E+00  0.00000000E+00  0.00000000E+00
  0.00000000E+00  0.00000000E+00  0.00000000E+00
  0.00000000E+00  0.00000000E+00  0.00000000E+00
  0.00000000E+00  0.00000000E+00  0.00000000E+00
  0.00000000E+00  0.00000000E+00  0.00000000E+00
  0.00000000E+00  0.00000000E+00  0.00000000E+00
  0.00000000E+00  0.00000000E+00  0.00000000E+00
  0.00000000E+00  0.00000000E+00  0.00000000E+00
  0.00000000E+00  0.00000000E+00  0.00000000E+00
  0.00000000E+00  0.00000000E+00  0.00000000E+00
  0.00000000E+00  0.00000000E+00  0.00000000E+00
