MA-Pb-I                                 
   1.00000000000000     
     5.8892445321787328   -0.0048008041779134    0.0656571269169357
    -0.0053334077729528    5.8544884580747532    0.0012821621476484
     0.0639774282558244    0.0006908469467942    6.0230320529523143
   C    N    H    Pb   Br
     1     1     6     1     3
Direct
  0.2685312722357274  0.2031857797169987  0.8139140811584098 
  0.1804868889168147  0.4428338958188442  0.8644278380164472 
  0.3141219068116501  0.0665602172686395  0.9265267110269921 
  0.2222124430976437  0.9324817596662667  0.8087905124328638 
  0.5720008024432426  0.3797898442292467  0.2035177455361423 
  0.6886096834627774  0.8632220703155855  0.4595178253249010 
  0.0487839532385232  0.3223459657667397  0.8654159419268548 
  0.1259915568768639  0.5736256843816993  0.7652606091262543 
  0.5224971277689808  0.4829277547135293  0.5336016043081658 
  0.4352272726238539  0.4972012503325617  0.9832769846011953
  0.4159970891092727  0.9985715009710078  0.5336351900357424
  0.9598885390497535  0.4995712578389358  0.4264000332832606
 
  0.00000000E+00  0.00000000E+00  0.00000000E+00
  0.00000000E+00  0.00000000E+00  0.00000000E+00
  0.00000000E+00  0.00000000E+00  0.00000000E+00
  0.00000000E+00  0.00000000E+00  0.00000000E+00
  0.00000000E+00  0.00000000E+00  0.00000000E+00
  0.00000000E+00  0.00000000E+00  0.00000000E+00
  0.00000000E+00  0.00000000E+00  0.00000000E+00
  0.00000000E+00  0.00000000E+00  0.00000000E+00
  0.00000000E+00  0.00000000E+00  0.00000000E+00
  0.00000000E+00  0.00000000E+00  0.00000000E+00
  0.00000000E+00  0.00000000E+00  0.00000000E+00
  0.00000000E+00  0.00000000E+00  0.00000000E+00
