MA-Pb-I                                 
   1.0000000000000000     
     5.8857348584972646   -0.0000116429338373    0.0677019167604032
    -0.0000113721705701    5.8535748976198549   -0.0000048572736550
     0.0678468051824150   -0.0000044748208102    6.0066012361495211
   C    N    H    Pb   Br
     1     1     6     1     3
Direct
  0.4211242621323775  0.9437549597835551  0.9266298307149388 
  0.9618782562926188  0.2621659902561490  0.9773595666056114 
  0.4511443119963943  0.8973569874371035  0.1013571138909016 
  0.0330539106273671  0.4276710166323447  0.9279193185127947 
  0.5624410211044032  0.9237247847117596  0.8749366438494053 
  0.6161852651439277  0.8150182910614470  0.0718539387738457 
  0.1325049974762574  0.2970777924206512  0.0174014094466679 
  0.9430921335660326  0.2974413018714342  0.8086441142629313 
  0.4946583584322782  0.4985612160339754  0.5226851576047453 
  0.4343825501137815  0.4999407920523851  0.9818407606070920
  0.4217797225331665  0.9999416700962840  0.5296464633737443
  0.9610032600387797  0.4999434169907246  0.4296279775420402

  0.00000000E+00  0.00000000E+00  0.00000000E+00
  0.00000000E+00  0.00000000E+00  0.00000000E+00
  0.00000000E+00  0.00000000E+00  0.00000000E+00
  0.00000000E+00  0.00000000E+00  0.00000000E+00
  0.00000000E+00  0.00000000E+00  0.00000000E+00
  0.00000000E+00  0.00000000E+00  0.00000000E+00
  0.00000000E+00  0.00000000E+00  0.00000000E+00
  0.00000000E+00  0.00000000E+00  0.00000000E+00
  0.00000000E+00  0.00000000E+00  0.00000000E+00
  0.00000000E+00  0.00000000E+00  0.00000000E+00
  0.00000000E+00  0.00000000E+00  0.00000000E+00
  0.00000000E+00  0.00000000E+00  0.00000000E+00
