MA-Pb-I                                 
   1.00000000000000     
     6.2884187138843197    0.0009579558247489    0.0690993966769832
     0.0005978161223733    6.2287690412624563   -0.0003732067435118
     0.0697053521696059    0.0000445224912706    6.3737103126460282
   C    N    H    Pb   I 
     1     1     6     1     3
Direct
  0.5493026822593077  0.5749954398250758  0.4911098016285937
  0.7611647942052716  0.6709546181351324  0.5291909132995964
  0.4285272108217933  0.6609831094302651  0.5869181915120185
  0.5522011781020096  0.4055061540148515  0.5425113434837426
  0.5152208899675641  0.5863674164073456  0.3228387015063203
  0.7997194360097030  0.6731387202657977  0.6888031372145568
  0.7778844900826341  0.8273970158193440  0.4742940048670363
  0.8809469670899477  0.5764972789852291  0.4575549362290125
  0.0922692451435875  0.2037810555124371 -0.0231162708888581
  0.0840164998712251  0.1990814965300403  0.4753236024742819
  0.5944408936146658  0.2144317577259325 -0.0249764928102955
  0.0950123291380863  0.7010665317192424 -0.0201495453399956
 
  0.00000000E+00  0.00000000E+00  0.00000000E+00
  0.00000000E+00  0.00000000E+00  0.00000000E+00
  0.00000000E+00  0.00000000E+00  0.00000000E+00
  0.00000000E+00  0.00000000E+00  0.00000000E+00
  0.00000000E+00  0.00000000E+00  0.00000000E+00
  0.00000000E+00  0.00000000E+00  0.00000000E+00
  0.00000000E+00  0.00000000E+00  0.00000000E+00
  0.00000000E+00  0.00000000E+00  0.00000000E+00
  0.00000000E+00  0.00000000E+00  0.00000000E+00
  0.00000000E+00  0.00000000E+00  0.00000000E+00
  0.00000000E+00  0.00000000E+00  0.00000000E+00
  0.00000000E+00  0.00000000E+00  0.00000000E+00
