MA-Pb-I                                 
   1.00000000000000     
     5.6267413476480952    0.0000416704727542    0.0620815770375229
    -0.0000317550626923    5.5940171136319288    0.0000254647194750
     0.0578866146782483   -0.0000342937909938    5.7648243532177101
   C    N    H    Pb   Cl
     1     1     6     1     3
Direct
  0.3638143546913591  0.4566922970648947  0.5555016806719654
  0.6001006819112259  0.4441380271609964  0.4364036064677064
  0.2786298308885912  0.2796302675967313  0.5535300463504886
  0.2537008099497365  0.5898669752699351  0.4653234859975795
  0.3875985400000267  0.5170554669970372  0.7360265680759666
  0.5939483488472881  0.4262106002988031  0.2552955196496886
  0.6999922919495567  0.2980829859512245  0.4929487758694499
  0.6971878115815650  0.6030250897771986  0.4658160849897293
 -0.0777973047515528  0.9212001381576458  0.9959262396399178
  0.9118022188952856 -0.0675067966314944  0.4970627509787484
  0.9210286447956922  0.4215127287092093 -0.0105668259655567
  0.4242431263785201 -0.0850216417311098  0.9994622361498365
 
  0.00000000E+00  0.00000000E+00  0.00000000E+00
  0.00000000E+00  0.00000000E+00  0.00000000E+00
  0.00000000E+00  0.00000000E+00  0.00000000E+00
  0.00000000E+00  0.00000000E+00  0.00000000E+00
  0.00000000E+00  0.00000000E+00  0.00000000E+00
  0.00000000E+00  0.00000000E+00  0.00000000E+00
  0.00000000E+00  0.00000000E+00  0.00000000E+00
  0.00000000E+00  0.00000000E+00  0.00000000E+00
  0.00000000E+00  0.00000000E+00  0.00000000E+00
  0.00000000E+00  0.00000000E+00  0.00000000E+00
  0.00000000E+00  0.00000000E+00  0.00000000E+00
  0.00000000E+00  0.00000000E+00  0.00000000E+00
