MA-Pb-I                                 
   1.0000000000000000     
     5.6267413476480952    0.0000416704727542    0.0620815770375229
    -0.0000317550626923    5.5940171136319288    0.0000254647194750
     0.0578866146782483   -0.0000342937909938    5.7648243532177101
   C    N    H    Pb   Cl
     1     1     6     1     3
Direct
  0.3241062870711942  0.4814710818350045  0.5648894768315561 
  0.5684919805390303  0.4280932980915672  0.4952211861300642 
  0.2429663611288148  0.3164937151764725  0.6163303804028931 
  0.2277413589592454  0.5587612285514887  0.4123730809574206 
  0.3247855970983035  0.6059108410841968  0.7166633620025704 
  0.5756326114151286  0.3102467985225982  0.3503775571452149 
  0.6667575733772160  0.3545176171525312  0.6361081872166253 
  0.6572430180970101  0.5767372929005565  0.4438858836749818 
  0.2034285185336173  0.6725761072070315  0.7853431184917045 
  0.9135858188955126  0.0000223702692494  0.4744099460480626
  0.9004629834686284  0.5000248740275239  0.0232973215355017
  0.4490472465535831  0.0000309138028598  0.9238306684389244

  0.00000000E+00  0.00000000E+00  0.00000000E+00
  0.00000000E+00  0.00000000E+00  0.00000000E+00
  0.00000000E+00  0.00000000E+00  0.00000000E+00
  0.00000000E+00  0.00000000E+00  0.00000000E+00
  0.00000000E+00  0.00000000E+00  0.00000000E+00
  0.00000000E+00  0.00000000E+00  0.00000000E+00
  0.00000000E+00  0.00000000E+00  0.00000000E+00
  0.00000000E+00  0.00000000E+00  0.00000000E+00
  0.00000000E+00  0.00000000E+00  0.00000000E+00
  0.00000000E+00  0.00000000E+00  0.00000000E+00
  0.00000000E+00  0.00000000E+00  0.00000000E+00
  0.00000000E+00  0.00000000E+00  0.00000000E+00
