MA-Pb-I                                 
   1.0000000000000000     
     5.6267413476480952    0.0000416704727542    0.0620815770375229
    -0.0000317550626923    5.5940171136319288    0.0000254647194750
     0.0578866146782483   -0.0000342937909938    5.7648243532177101
   C    N    H    Pb   Cl
     1     1     6     1     3
Direct
  0.6316310300789880  0.3541461864122472  0.4686917192872943 
  0.4144308898381743  0.4856255384185021  0.5231389852771485 
  0.6000953280215134  0.1716915475644999  0.5152018247530359 
  0.7801357838405956  0.4256701989132345  0.5752368782851373 
  0.6707570115929491  0.3685247418199207  0.2769016202754533 
  0.3711766124070127  0.4768426167831473  0.7047164913149936 
  0.2684677876512278  0.4231804663831348  0.4245791536259712 
  0.4308786012446981  0.6610280927239461  0.4835092758262702 
  0.9716318365761670  0.8685472565255794  0.0710472433674048 
  0.9135858188955126  0.0000223702692494  0.4744099460480626
  0.9004629834686284  0.5000248740275239  0.0232973215355017
  0.4490472465535831  0.0000309138028598  0.9238306684389244

  0.00000000E+00  0.00000000E+00  0.00000000E+00
  0.00000000E+00  0.00000000E+00  0.00000000E+00
  0.00000000E+00  0.00000000E+00  0.00000000E+00
  0.00000000E+00  0.00000000E+00  0.00000000E+00
  0.00000000E+00  0.00000000E+00  0.00000000E+00
  0.00000000E+00  0.00000000E+00  0.00000000E+00
  0.00000000E+00  0.00000000E+00  0.00000000E+00
  0.00000000E+00  0.00000000E+00  0.00000000E+00
  0.00000000E+00  0.00000000E+00  0.00000000E+00
  0.00000000E+00  0.00000000E+00  0.00000000E+00
  0.00000000E+00  0.00000000E+00  0.00000000E+00
  0.00000000E+00  0.00000000E+00  0.00000000E+00
