MA-Pb-I                                 
   1.0000000000000000     
     6.2884187138843197    0.0009579558247489    0.0690993966769832
     0.0005978161223733    6.2287690412624563   -0.0003732067435118
     0.0697053521696059    0.0000445224912706    6.3737103126460282
   C    N    H    Pb   I 
     1     1     6     1     3
Direct
  0.4487245442289883  0.4842684698265239  0.4809242840924077 
  0.4374269109576678  0.6237305174922487  0.6674011512032362 
  0.5688434500252983  0.5494173935915252  0.3751381739879907 
  0.2916602288590259  0.4816546762269028  0.4007686152306168 
  0.4943783014516841  0.3219778686344499  0.5325455871358148 
  0.3937669872672777  0.7804043838863820  0.6259848838880513 
  0.5837195149026779  0.6307170378544527  0.7494561068543735 
  0.3262156085537209  0.5716399500172111  0.7752992341082163 
  0.8743783362512687  0.0283084076023938  0.9258732462259127 
  0.9094873486598019  0.9999820990246278  0.4751454839169895
  0.8992708791277906  0.4999580210910821  0.0236644354684188
  0.4323428768805755  0.9999948727175436  0.9224794036872126

  0.00000000E+00  0.00000000E+00  0.00000000E+00
  0.00000000E+00  0.00000000E+00  0.00000000E+00
  0.00000000E+00  0.00000000E+00  0.00000000E+00
  0.00000000E+00  0.00000000E+00  0.00000000E+00
  0.00000000E+00  0.00000000E+00  0.00000000E+00
  0.00000000E+00  0.00000000E+00  0.00000000E+00
  0.00000000E+00  0.00000000E+00  0.00000000E+00
  0.00000000E+00  0.00000000E+00  0.00000000E+00
  0.00000000E+00  0.00000000E+00  0.00000000E+00
  0.00000000E+00  0.00000000E+00  0.00000000E+00
  0.00000000E+00  0.00000000E+00  0.00000000E+00
  0.00000000E+00  0.00000000E+00  0.00000000E+00
