MA-Pb-I                                 
   1.0000000000000000     
     5.8857348584972646   -0.0000116429338373    0.0677019167604032
    -0.0000113721705701    5.8535748976198549   -0.0000048572736550
     0.0678468051824150   -0.0000044748208102    6.0066012361495211
   C    N    H    Pb   Br
     1     1     6     1     3
Direct
  0.5281453015743425  0.7966108578440120  0.5209471153194720 
  0.6947604282597325  0.6395990731606334  0.4152779246394851 
  0.4169342312028961  0.8850777257628452  0.6366593006122155 
  0.4893874719958132  0.9277779905101108  0.0955530949090464 
  0.0074970969795620  0.4400533253854566  0.0052658989046452 
  0.2896728119208462  0.2248425435204395  0.6303636072801246 
  0.7944005352042087  0.7235752671819908  0.5375706711178032 
  0.8047696024882220  0.5492171341290907  0.3163271461770931 
  0.4282758612789619  0.6078707740287105  0.5013858961844592 
  0.4343825501137815  0.4999407920523851  0.9818407606070920
  0.4217797225331665  0.9999416700962840  0.5296464633737443
  0.9610032600387797  0.4999434169907246  0.4296279775420402

  0.00000000E+00  0.00000000E+00  0.00000000E+00
  0.00000000E+00  0.00000000E+00  0.00000000E+00
  0.00000000E+00  0.00000000E+00  0.00000000E+00
  0.00000000E+00  0.00000000E+00  0.00000000E+00
  0.00000000E+00  0.00000000E+00  0.00000000E+00
  0.00000000E+00  0.00000000E+00  0.00000000E+00
  0.00000000E+00  0.00000000E+00  0.00000000E+00
  0.00000000E+00  0.00000000E+00  0.00000000E+00
  0.00000000E+00  0.00000000E+00  0.00000000E+00
  0.00000000E+00  0.00000000E+00  0.00000000E+00
  0.00000000E+00  0.00000000E+00  0.00000000E+00
  0.00000000E+00  0.00000000E+00  0.00000000E+00
