MA-Pb-I                                 
   1.0000000000000000     
     5.8857348584972646   -0.0000116429338373    0.0677019167604032
    -0.0000113721705701    5.8535748976198549   -0.0000048572736550
     0.0678468051824150   -0.0000044748208102    6.0066012361495211
   C    N    H    Pb   Br
     1     1     6     1     3
Direct
  0.5137867065528434  0.2342001802494507  0.7918859086385248 
  0.5113514553940237  0.0583337403437057  0.9753460981796251 
  0.3853105482592429  0.1077950680926358  0.8250404420916446 
  0.8879764726757710  0.3462730715390615  0.1352579439966671 
  0.9592048217605030  0.4521738058534168  0.8149321431722282 
  0.3210182651639459  0.9500835253926748  0.1418308419491084 
  0.3942230463079051  0.0589241524107413  0.8403784905325475 
  0.6231268702973033  0.1870184227852777  0.9435863909397824 
  0.4886193142357358  0.5185482370859829  0.3972872560593834 
  0.4343825501137815  0.4999407920523851  0.9818407606070920
  0.4217797225331665  0.9999416700962840  0.5296464633737443
  0.9610032600387797  0.4999434169907246  0.4296279775420402

  0.00000000E+00  0.00000000E+00  0.00000000E+00
  0.00000000E+00  0.00000000E+00  0.00000000E+00
  0.00000000E+00  0.00000000E+00  0.00000000E+00
  0.00000000E+00  0.00000000E+00  0.00000000E+00
  0.00000000E+00  0.00000000E+00  0.00000000E+00
  0.00000000E+00  0.00000000E+00  0.00000000E+00
  0.00000000E+00  0.00000000E+00  0.00000000E+00
  0.00000000E+00  0.00000000E+00  0.00000000E+00
  0.00000000E+00  0.00000000E+00  0.00000000E+00
  0.00000000E+00  0.00000000E+00  0.00000000E+00
  0.00000000E+00  0.00000000E+00  0.00000000E+00
  0.00000000E+00  0.00000000E+00  0.00000000E+00
