MA-Pb-I                                 
   1.00000000000000     
     6.2884187138843197    0.0009579558247489    0.0690993966769832
     0.0005978161223733    6.2287690412624563   -0.0003732067435118
     0.0697053521696059    0.0000445224912706    6.3737103126460282
   C    N    H    Pb   I 
     1     1     6     1     3
Direct
  0.5317982653883903  0.4742171188933513  0.5056430164901863
  0.6845653858788074  0.5089076735034412  0.6726633260693836
  0.4366160417607873  0.6385735548732380  0.4968363367816787
  0.4188775411140293  0.3531164583093515  0.5724218450601104
  0.6053950698705953  0.4298665072835296  0.3633145362877800
  0.6079783534167229  0.5586737402469590  0.8129147271703695
  0.7848793701183929  0.6278856645921449  0.6314121497350542
  0.7689991209027101  0.3682873059531570  0.7123625366992791
  0.2918112798938313 -0.0294078647419941  0.2996157894922160
  0.7815415697649063 -0.0309962079336399  0.3467258296752327
  0.1446805593282400  0.4630399788342478  0.2301340539183137
  0.3410457684358148  0.9704216581005306  0.8173620067287278
 
  0.00000000E+00  0.00000000E+00  0.00000000E+00
  0.00000000E+00  0.00000000E+00  0.00000000E+00
  0.00000000E+00  0.00000000E+00  0.00000000E+00
  0.00000000E+00  0.00000000E+00  0.00000000E+00
  0.00000000E+00  0.00000000E+00  0.00000000E+00
  0.00000000E+00  0.00000000E+00  0.00000000E+00
  0.00000000E+00  0.00000000E+00  0.00000000E+00
  0.00000000E+00  0.00000000E+00  0.00000000E+00
  0.00000000E+00  0.00000000E+00  0.00000000E+00
  0.00000000E+00  0.00000000E+00  0.00000000E+00
  0.00000000E+00  0.00000000E+00  0.00000000E+00
  0.00000000E+00  0.00000000E+00  0.00000000E+00
