MA-Pb-I                                 
   1.0000000000000000     
     6.2884187138843197    0.0009579558247489    0.0690993966769832
     0.0005978161223733    6.2287690412624563   -0.0003732067435118
     0.0697053521696059    0.0000445224912706    6.3737103126460282
   C    N    H    Pb   I 
     1     1     6     1     3
Direct
  0.5115011339987888  0.4939962686937732  0.4992213520528900 
  0.6397523164597231  0.4639068893929376  0.6915678744409549 
  0.4536763434680228  0.6568372826589965  0.5008744277666831 
  0.3760773871090447  0.3810524203788261  0.5014704043978295 
  0.6124498355389215  0.4664966938918773  0.3573044864068045 
  0.5498864001680663  0.4879586818435013  0.8312597672437809 
  0.7713821741155313  0.5680044919160133  0.6961091193311344 
  0.7002125775349621  0.3123131201907434  0.7009093554054147 
  0.5421490528119988  0.0020847461143951  0.2614000439902198 
  0.9094873486598019  0.9999820990246278  0.4751454839169895
  0.8992708791277906  0.4999580210910821  0.0236644354684188
  0.4323428768805755  0.9999948727175436  0.9224794036872126

  0.00000000E+00  0.00000000E+00  0.00000000E+00
  0.00000000E+00  0.00000000E+00  0.00000000E+00
  0.00000000E+00  0.00000000E+00  0.00000000E+00
  0.00000000E+00  0.00000000E+00  0.00000000E+00
  0.00000000E+00  0.00000000E+00  0.00000000E+00
  0.00000000E+00  0.00000000E+00  0.00000000E+00
  0.00000000E+00  0.00000000E+00  0.00000000E+00
  0.00000000E+00  0.00000000E+00  0.00000000E+00
  0.00000000E+00  0.00000000E+00  0.00000000E+00
  0.00000000E+00  0.00000000E+00  0.00000000E+00
  0.00000000E+00  0.00000000E+00  0.00000000E+00
  0.00000000E+00  0.00000000E+00  0.00000000E+00
