MA-Pb-I                                 
   1.00000000000000     
     5.8892445321787328   -0.0048008041779134    0.0656571269169357
    -0.0053334077729528    5.8544884580747532    0.0012821621476484
     0.0639774282558244    0.0006908469467942    6.0230320529523143
   C    N    H    Pb   Br
     1     1     6     1     3
Direct
 -0.0294212130819602  0.8228043881513383  0.0620837239842873
  0.9752283818776100 -0.0182179795811613  0.2099597159001209
  0.9932243059946735  0.8747723880020122  0.8844156226226695
  0.4311790379382007  0.9317298766751294  0.0723823014464713
  0.9207099465558292  0.6393597167189482  0.0990451836194221
  0.4181484844007184  0.0722746636169213  0.0707225079019957
 -0.0554735786905526 -0.0855832950121707  0.3701884788784593
  0.3101215614699950  0.0185339703900639  0.3466756661699807
  0.4581437812069492  0.5030910877240333  0.5641304264155169
  0.4507558898035139  0.5109222837805014  0.0689725168324195
  0.4379341830296580  0.0079984454338837  0.5654326235608105
  0.9504927786290690  0.4958153417386009  0.5701282655355806
 
  0.00000000E+00  0.00000000E+00  0.00000000E+00
  0.00000000E+00  0.00000000E+00  0.00000000E+00
  0.00000000E+00  0.00000000E+00  0.00000000E+00
  0.00000000E+00  0.00000000E+00  0.00000000E+00
  0.00000000E+00  0.00000000E+00  0.00000000E+00
  0.00000000E+00  0.00000000E+00  0.00000000E+00
  0.00000000E+00  0.00000000E+00  0.00000000E+00
  0.00000000E+00  0.00000000E+00  0.00000000E+00
  0.00000000E+00  0.00000000E+00  0.00000000E+00
  0.00000000E+00  0.00000000E+00  0.00000000E+00
  0.00000000E+00  0.00000000E+00  0.00000000E+00
  0.00000000E+00  0.00000000E+00  0.00000000E+00
