MA-Pb-I                                 
   1.00000000000000     
     6.2884187138843197    0.0009579558247489    0.0690993966769832
     0.0005978161223733    6.2287690412624563   -0.0003732067435118
     0.0697053521696059    0.0000445224912706    6.3737103126460282
   C    N    H    Pb   I 
     1     1     6     1     3
Direct
  0.4232215238470344  0.5632572462822439  0.4139037154100124
  0.6241868572100661  0.4442944552576855  0.4495378317805114
  0.3115416901709851  0.5326375787521460  0.5466230165341441
  0.3549085345945436  0.5051680351172158  0.2664861526978766
  0.4600418493520191  0.7342592094308018  0.4004370804944208
  0.6020913537124721  0.2785085740024718  0.4655358282156058
  0.6995837887225361  0.4937336428053756  0.5846025783304535
  0.7316170896286954  0.4641193050429520  0.3224301489442423
 -0.0387172049688159  0.0021576860746602 -0.0277065170626201
  0.9594983145587809 -0.0221612307398579  0.4714051981084229
  0.9529976076789934  0.5007758496374365 -0.0386759865854062
  0.4614736442194032  0.0244265637668507 -0.0212376075610565
 
  0.00000000E+00  0.00000000E+00  0.00000000E+00
  0.00000000E+00  0.00000000E+00  0.00000000E+00
  0.00000000E+00  0.00000000E+00  0.00000000E+00
  0.00000000E+00  0.00000000E+00  0.00000000E+00
  0.00000000E+00  0.00000000E+00  0.00000000E+00
  0.00000000E+00  0.00000000E+00  0.00000000E+00
  0.00000000E+00  0.00000000E+00  0.00000000E+00
  0.00000000E+00  0.00000000E+00  0.00000000E+00
  0.00000000E+00  0.00000000E+00  0.00000000E+00
  0.00000000E+00  0.00000000E+00  0.00000000E+00
  0.00000000E+00  0.00000000E+00  0.00000000E+00
  0.00000000E+00  0.00000000E+00  0.00000000E+00
