MA-Pb-I                                 
   1.00000000000000     
     5.8857348584972646   -0.0000116429338373    0.0677019167604032
    -0.0000113721705701    5.8535748976198549   -0.0000048572736550
     0.0678468051824150   -0.0000044748208102    6.0066012361495211
   C    N    H    Pb   Br
     1     1     6     1     3
Direct
  0.0385142714969446  0.1787170345121431  0.6555423411820789
  0.0139128152965381  0.8422090530895215  0.9066353564544785
  0.2145342448153916  0.1874440376517563  0.7147857308498704
 -0.0952970665397854  0.2463578725639930  0.7704490658619375
  0.0463705464382671  0.7022844184449442  0.8074834577155752
  0.9866288018414249  0.0398562772108864  0.5421539520012066
  0.1354094661165390  0.8496458024321110  0.0256118515688336
  0.8555482516041214  0.8225570903551512  0.9787757176497837
  0.5359944108554680  0.4613880307685127  0.4040655151129333
  0.5279558151492321  0.4656491536562877  0.9101484516975734
  0.5369812218202615 -0.0406195520138589  0.4062952543439923
  0.0380085677826669  0.4495001852357215  0.4064767912306246
 
  0.00000000E+00  0.00000000E+00  0.00000000E+00
  0.00000000E+00  0.00000000E+00  0.00000000E+00
  0.00000000E+00  0.00000000E+00  0.00000000E+00
  0.00000000E+00  0.00000000E+00  0.00000000E+00
  0.00000000E+00  0.00000000E+00  0.00000000E+00
  0.00000000E+00  0.00000000E+00  0.00000000E+00
  0.00000000E+00  0.00000000E+00  0.00000000E+00
  0.00000000E+00  0.00000000E+00  0.00000000E+00
  0.00000000E+00  0.00000000E+00  0.00000000E+00
  0.00000000E+00  0.00000000E+00  0.00000000E+00
  0.00000000E+00  0.00000000E+00  0.00000000E+00
  0.00000000E+00  0.00000000E+00  0.00000000E+00
