MA-Pb-I                                 
   1.00000000000000     
     5.8857348584972646   -0.0000116429338373    0.0677019167604032
    -0.0000113721705701    5.8535748976198549   -0.0000048572736550
     0.0678468051824150   -0.0000044748208102    6.0066012361495211
   C    N    H    Pb   Br
     1     1     6     1     3
Direct
  0.5451358596351208  0.8229253961458406  0.5470395147259439
 -0.0848045308832403  0.0884752093623101  0.7427266944536492
  0.3756021881211427  0.7905386644719993  0.4658021695756351
  0.0162204562741190  0.0974301028716561  0.8786195960886473
  0.8903102440157947  0.6626983786949550  0.2610314167395548
  0.2601265915674106  0.3987544538534361  0.1446588990324155
 -0.2092460844045958  0.9620645293881295  0.7628509144007561
  0.0157449396446615  0.0334955511575721  0.6110372834438965
  0.5530050006233336  0.3370969493016033  0.5246498034277138
  0.5162320267416332  0.3505778856425885  0.0225302525920049
  0.7236378991394343  0.8660694483921341  0.2590668618160822
  0.0676273980968380  0.3937473917148772  0.3793987583993713
 
  0.00000000E+00  0.00000000E+00  0.00000000E+00
  0.00000000E+00  0.00000000E+00  0.00000000E+00
  0.00000000E+00  0.00000000E+00  0.00000000E+00
  0.00000000E+00  0.00000000E+00  0.00000000E+00
  0.00000000E+00  0.00000000E+00  0.00000000E+00
  0.00000000E+00  0.00000000E+00  0.00000000E+00
  0.00000000E+00  0.00000000E+00  0.00000000E+00
  0.00000000E+00  0.00000000E+00  0.00000000E+00
  0.00000000E+00  0.00000000E+00  0.00000000E+00
  0.00000000E+00  0.00000000E+00  0.00000000E+00
  0.00000000E+00  0.00000000E+00  0.00000000E+00
  0.00000000E+00  0.00000000E+00  0.00000000E+00
