MA-Pb-I                                 
   1.0000000000000000     
     5.8857348584972646   -0.0000116429338373    0.0677019167604032
    -0.0000113721705701    5.8535748976198549   -0.0000048572736550
     0.0678468051824150   -0.0000044748208102    6.0066012361495211
   C    N    H    Pb   Br
     1     1     6     1     3
Direct
  0.0907835990775347  0.9146068226230279  0.2350536525795398 
  0.6525447651324552  0.8155817656467599  0.3631790000016699 
  0.1039737040560238  0.7830824947519082  0.3619826525222631 
  0.3845417168095353  0.4657051134069300  0.1894764846362729 
  0.9374547513954208  0.2073199224282682  0.8642539000352887 
  0.0252282306551115  0.1457546669781593  0.8532324006702796 
  0.5934949368000013  0.8801937834454145  0.5189803891011372 
  0.6480612378001885  0.9474932635371262  0.2507449100519142 
  0.4398315579818475  0.5069869743802656  0.5154225123319570 
  0.4343825501137815  0.4999407920523851  0.9818407606070920
  0.4217797225331665  0.9999416700962840  0.5296464633737443
  0.9610032600387797  0.4999434169907246  0.4296279775420402

  0.00000000E+00  0.00000000E+00  0.00000000E+00
  0.00000000E+00  0.00000000E+00  0.00000000E+00
  0.00000000E+00  0.00000000E+00  0.00000000E+00
  0.00000000E+00  0.00000000E+00  0.00000000E+00
  0.00000000E+00  0.00000000E+00  0.00000000E+00
  0.00000000E+00  0.00000000E+00  0.00000000E+00
  0.00000000E+00  0.00000000E+00  0.00000000E+00
  0.00000000E+00  0.00000000E+00  0.00000000E+00
  0.00000000E+00  0.00000000E+00  0.00000000E+00
  0.00000000E+00  0.00000000E+00  0.00000000E+00
  0.00000000E+00  0.00000000E+00  0.00000000E+00
  0.00000000E+00  0.00000000E+00  0.00000000E+00
