MA-Pb-I                                 
   1.00000000000000     
     6.2884187138843197    0.0009579558247489    0.0690993966769832
     0.0005978161223733    6.2287690412624563   -0.0003732067435118
     0.0697053521696059    0.0000445224912706    6.3737103126460282
   C    N    H    Pb   I 
     1     1     6     1     3
Direct
  0.5671387501989428  0.5761803069192011  0.3545289411645307
  0.6384061047688119  0.6635279430168367  0.5569392591989276
  0.5243604949342789  0.4058547354685424  0.3812003871524954
  0.6981196380343544  0.5926922515658838  0.2397631239694112
  0.4285652588550195  0.6662563919433586  0.2985180074977876
  0.7329476232672152  0.5513201139066894  0.6369145088468239
  0.5032150641556811  0.6914325854268621  0.6554198477153521
  0.7217786487956430  0.8060344882652263  0.5441964670520453
  0.1647104825125729  0.1561365579808857  0.7756715580014436
  0.6609290845642561  0.1652338028437431  0.7872059559148638
  0.2145917758951472  0.1217593393459253  0.2490839357775387
  0.1396354549878034  0.6536003862363382  0.7721973598481233
 
  0.00000000E+00  0.00000000E+00  0.00000000E+00
  0.00000000E+00  0.00000000E+00  0.00000000E+00
  0.00000000E+00  0.00000000E+00  0.00000000E+00
  0.00000000E+00  0.00000000E+00  0.00000000E+00
  0.00000000E+00  0.00000000E+00  0.00000000E+00
  0.00000000E+00  0.00000000E+00  0.00000000E+00
  0.00000000E+00  0.00000000E+00  0.00000000E+00
  0.00000000E+00  0.00000000E+00  0.00000000E+00
  0.00000000E+00  0.00000000E+00  0.00000000E+00
  0.00000000E+00  0.00000000E+00  0.00000000E+00
  0.00000000E+00  0.00000000E+00  0.00000000E+00
  0.00000000E+00  0.00000000E+00  0.00000000E+00
