MA-Pb-I                                 
   1.00000000000000     
     5.8892445321787328   -0.0048008041779134    0.0656571269169357
    -0.0053334077729528    5.8544884580747532    0.0012821621476484
     0.0639774282558244    0.0006908469467942    6.0230320529523143
   C    N    H    Pb   Br
     1     1     6     1     3
Direct
  0.2475745012555068  0.9430978421139635  0.1163739120970775 
  0.3365211620948305  0.3211690607175575  0.2395392244908923 
  0.3612655792816410  0.9056134861610817  0.2545618873964400 
  0.2508573298046286  0.4884263304275849  0.6757492755466603 
  0.8292385692903841  0.9794957883556416  0.8793992977201130 
  0.9367522548516789  0.8809513954041414  0.9783658243385832 
  0.5035777109666666  0.3580317433320699  0.1885761691139596 
  0.2363883255829564  0.3481542307065372  0.1011355102772660 
  0.5750543593096710  0.5307569130263783  0.5738224031643625 
  0.4352272726238539  0.4972012503325617  0.9832769846011953
  0.4159970891092727  0.9985715009710078  0.5336351900357424
  0.9598885390497535  0.4995712578389358  0.4264000332832606
 
  0.00000000E+00  0.00000000E+00  0.00000000E+00
  0.00000000E+00  0.00000000E+00  0.00000000E+00
  0.00000000E+00  0.00000000E+00  0.00000000E+00
  0.00000000E+00  0.00000000E+00  0.00000000E+00
  0.00000000E+00  0.00000000E+00  0.00000000E+00
  0.00000000E+00  0.00000000E+00  0.00000000E+00
  0.00000000E+00  0.00000000E+00  0.00000000E+00
  0.00000000E+00  0.00000000E+00  0.00000000E+00
  0.00000000E+00  0.00000000E+00  0.00000000E+00
  0.00000000E+00  0.00000000E+00  0.00000000E+00
  0.00000000E+00  0.00000000E+00  0.00000000E+00
  0.00000000E+00  0.00000000E+00  0.00000000E+00
