MA-Pb-I                                 
   1.00000000000000     
     5.8892445321787328   -0.0048008041779134    0.0656571269169357
    -0.0053334077729528    5.8544884580747532    0.0012821621476484
     0.0639774282558244    0.0006908469467942    6.0230320529523143
   C    N    H    Pb   Br
     1     1     6     1     3
Direct
 -0.0787713818052622  0.8669009766164459  0.7957789998343268
  0.0538311659942250  0.6876944850020660  0.9027304044081127
  0.8011955292829106  0.9451115235229469  0.9141982118642272
  0.0402823693440876 -0.0039951521939484  0.7289020292652616
  0.8196055491473596 -0.1968462606707901  0.6559764526571337
  0.1095344755662613  0.3969525814375719  0.2224003927224708
  0.9622537416819050  0.6359797206976889  0.0409364159365372
  0.2107609695255316  0.7493189116085205  0.9448814686436431
  0.5601945996970095  0.4247520127421928  0.4531945344396053
  0.5548195588436803  0.4113255645898767 -0.0371319765638480
  0.5223458529041697 -0.0629438478884453  0.4262820985188375
  0.0739808752462373  0.4374484404140998  0.4624416057123034
 
  0.00000000E+00  0.00000000E+00  0.00000000E+00
  0.00000000E+00  0.00000000E+00  0.00000000E+00
  0.00000000E+00  0.00000000E+00  0.00000000E+00
  0.00000000E+00  0.00000000E+00  0.00000000E+00
  0.00000000E+00  0.00000000E+00  0.00000000E+00
  0.00000000E+00  0.00000000E+00  0.00000000E+00
  0.00000000E+00  0.00000000E+00  0.00000000E+00
  0.00000000E+00  0.00000000E+00  0.00000000E+00
  0.00000000E+00  0.00000000E+00  0.00000000E+00
  0.00000000E+00  0.00000000E+00  0.00000000E+00
  0.00000000E+00  0.00000000E+00  0.00000000E+00
  0.00000000E+00  0.00000000E+00  0.00000000E+00
