MA-Pb-I                                 
   1.00000000000000     
     5.8892445321787328   -0.0048008041779134    0.0656571269169357
    -0.0053334077729528    5.8544884580747532    0.0012821621476484
     0.0639774282558244    0.0006908469467942    6.0230320529523143
   C    N    H    Pb   Br
     1     1     6     1     3
Direct
  0.4186426721851408  0.0134268222644322  0.7410995959645342
 -0.0144099499302018  0.8619416507365807  0.0013375323865138
  0.4236995181747560  0.1938656661715494  0.7947551221419936
 -0.0949065140377987  0.7880681988093186  0.8705106312881999
  0.2488405286166971  0.9398629140337039  0.7674826294979671
  0.5488673865846261  0.9106530220577096  0.8235743790182309
  0.8689745708257232  0.9663516314051870  0.0814984386065581
  0.0127857309188969  0.7269778908588386  0.1064927180386174
  0.5049685905305697  0.5208445301712166  0.4661046904132893
  0.5035392308236989  0.5189342654677138  0.0038978238800337
  0.5063923684305678  0.0173100093000650  0.4251178006698736
  0.0027612822541546  0.5149864868894942  0.4852804415555242
 
  0.00000000E+00  0.00000000E+00  0.00000000E+00
  0.00000000E+00  0.00000000E+00  0.00000000E+00
  0.00000000E+00  0.00000000E+00  0.00000000E+00
  0.00000000E+00  0.00000000E+00  0.00000000E+00
  0.00000000E+00  0.00000000E+00  0.00000000E+00
  0.00000000E+00  0.00000000E+00  0.00000000E+00
  0.00000000E+00  0.00000000E+00  0.00000000E+00
  0.00000000E+00  0.00000000E+00  0.00000000E+00
  0.00000000E+00  0.00000000E+00  0.00000000E+00
  0.00000000E+00  0.00000000E+00  0.00000000E+00
  0.00000000E+00  0.00000000E+00  0.00000000E+00
  0.00000000E+00  0.00000000E+00  0.00000000E+00
