MA-Pb-I                                 
   1.00000000000000     
     6.2884187138843197    0.0009579558247489    0.0690993966769832
     0.0005978161223733    6.2287690412624563   -0.0003732067435118
     0.0697053521696059    0.0000445224912706    6.3737103126460282
   C    N    H    Pb   I 
     1     1     6     1     3
Direct
  0.4413215142706557  0.5447720442202532  0.5722563994450783
  0.5377976498821705  0.4331985312107701  0.3877259342019854
  0.2989708905072447  0.4567446509237950  0.6263919433689549
  0.4000204266772216  0.7094370004600271  0.5286150658696616
  0.5588203703743753  0.5470160519491480  0.6973406388758164
  0.4276345662523285  0.3884871055754632  0.2759699782483849
  0.6179246651653876  0.2897376241267229  0.4290164497826435
  0.6544339150470481  0.5233357218921468  0.3045837412914892
  0.9150207142347777 -0.0000026568573442  0.9986289135799482
  0.8971630763941738  0.0080038495853418  0.4949473847826444
 -0.0661886672418207  0.4985387618621876  0.0001220585013915
  0.4174802765092328 -0.0019802702632350  0.0015377839823483
 
  0.00000000E+00  0.00000000E+00  0.00000000E+00
  0.00000000E+00  0.00000000E+00  0.00000000E+00
  0.00000000E+00  0.00000000E+00  0.00000000E+00
  0.00000000E+00  0.00000000E+00  0.00000000E+00
  0.00000000E+00  0.00000000E+00  0.00000000E+00
  0.00000000E+00  0.00000000E+00  0.00000000E+00
  0.00000000E+00  0.00000000E+00  0.00000000E+00
  0.00000000E+00  0.00000000E+00  0.00000000E+00
  0.00000000E+00  0.00000000E+00  0.00000000E+00
  0.00000000E+00  0.00000000E+00  0.00000000E+00
  0.00000000E+00  0.00000000E+00  0.00000000E+00
  0.00000000E+00  0.00000000E+00  0.00000000E+00
