MA-Pb-I                                 
   1.00000000000000     
     5.6267413476480952    0.0000416704727542    0.0620815770375229
    -0.0000317550626923    5.5940171136319288    0.0000254647194750
     0.0578866146782483   -0.0000342937909938    5.7648243532177101
   C    N    H    Pb   Cl
     1     1     6     1     3
Direct
  0.3966289667763016  0.3056873454414937  0.4538639100291768
  0.5217258874370418  0.5336454134174947  0.3943975466973411
  0.2179964706491734  0.3026654566323333  0.3770997188978196
  0.3779525068196325  0.2902776438941763  0.6445365961835001
  0.5006404938450345  0.1498124082772838  0.3880489288404571
  0.4389860498299742  0.6262314528900927  0.2606588050633760
  0.6972315578468666  0.5072356211288949  0.3417822291297443
  0.5264505767108631  0.6454964272805723  0.5400960684394053
 -0.0202783839156893  0.8647574495831591  0.8856538425706078
  0.9769923647650922  0.3679357317558433  0.8886251176999462
 -0.0171235049586364  0.8606340340329511  0.3832877238164458
  0.4800929665103350 -0.1427002038470113  0.8867366378088102
 
  0.00000000E+00  0.00000000E+00  0.00000000E+00
  0.00000000E+00  0.00000000E+00  0.00000000E+00
  0.00000000E+00  0.00000000E+00  0.00000000E+00
  0.00000000E+00  0.00000000E+00  0.00000000E+00
  0.00000000E+00  0.00000000E+00  0.00000000E+00
  0.00000000E+00  0.00000000E+00  0.00000000E+00
  0.00000000E+00  0.00000000E+00  0.00000000E+00
  0.00000000E+00  0.00000000E+00  0.00000000E+00
  0.00000000E+00  0.00000000E+00  0.00000000E+00
  0.00000000E+00  0.00000000E+00  0.00000000E+00
  0.00000000E+00  0.00000000E+00  0.00000000E+00
  0.00000000E+00  0.00000000E+00  0.00000000E+00
