MA-Pb-I                                 
   1.00000000000000     
     5.6267413476480952    0.0000416704727542    0.0620815770375229
    -0.0000317550626923    5.5940171136319288    0.0000254647194750
     0.0578866146782483   -0.0000342937909938    5.7648243532177101
   C    N    H    Pb   Cl
     1     1     6     1     3
Direct
  0.5471949091710230  0.7038115943599382  0.4860797124046772
  0.5401163622089591  0.4449767994434687  0.5442597761836439
  0.6124128151293127  0.7300759961661168  0.3062957519796238
  0.6707624496492247  0.7891052107490445  0.6036346865086579
  0.3670923724069558  0.7822976858106756  0.5056689402397430
  0.6571214225373920  0.3494298906202038  0.4398841887551377
  0.3731677198421685  0.3627509928124864  0.5171308049741142
  0.5821982063708079  0.4091261433473013  0.7165447180561125
  0.1159321593442610  0.1534823237045474  0.0317191755026686
  0.0870133246512597  0.1541837736259025  0.5284349811251120
  0.6248529135152671  0.1618601088276745  0.0441659519528293
  0.1202707420068257 -0.3595761576752322  0.0332703439722531
 
  0.00000000E+00  0.00000000E+00  0.00000000E+00
  0.00000000E+00  0.00000000E+00  0.00000000E+00
  0.00000000E+00  0.00000000E+00  0.00000000E+00
  0.00000000E+00  0.00000000E+00  0.00000000E+00
  0.00000000E+00  0.00000000E+00  0.00000000E+00
  0.00000000E+00  0.00000000E+00  0.00000000E+00
  0.00000000E+00  0.00000000E+00  0.00000000E+00
  0.00000000E+00  0.00000000E+00  0.00000000E+00
  0.00000000E+00  0.00000000E+00  0.00000000E+00
  0.00000000E+00  0.00000000E+00  0.00000000E+00
  0.00000000E+00  0.00000000E+00  0.00000000E+00
  0.00000000E+00  0.00000000E+00  0.00000000E+00
