MA-Pb-I                                 
   1.0000000000000000     
     5.6267413476480952    0.0000416704727542    0.0620815770375229
    -0.0000317550626923    5.5940171136319288    0.0000254647194750
     0.0578866146782483   -0.0000342937909938    5.7648243532177101
   C    N    H    Pb   Cl
     1     1     6     1     3
Direct
  0.4770265931042002  0.5768192178863294  0.4196072772227994 
  0.5096202330963066  0.4038633476928659  0.6105291127892706 
  0.4613156275060613  0.4785008089062168  0.2567145466687705 
  0.6330315360236689  0.6956240137959772  0.4112949121277735 
  0.3130992253533331  0.6798819975894359  0.4516526966482806 
  0.6646059874798608  0.3021803446205928  0.5868976559608594 
  0.3641877983388539  0.2873960695654000  0.6247921658546698 
  0.5259516937056148  0.4842889190594602  0.7713772026233467 
  0.0862006533078385  0.2728914845762104  0.2026855257363072 
  0.9135858188955126  0.0000223702692494  0.4744099460480626
  0.9004629834686284  0.5000248740275239  0.0232973215355017
  0.4490472465535831  0.0000309138028598  0.9238306684389244

  0.00000000E+00  0.00000000E+00  0.00000000E+00
  0.00000000E+00  0.00000000E+00  0.00000000E+00
  0.00000000E+00  0.00000000E+00  0.00000000E+00
  0.00000000E+00  0.00000000E+00  0.00000000E+00
  0.00000000E+00  0.00000000E+00  0.00000000E+00
  0.00000000E+00  0.00000000E+00  0.00000000E+00
  0.00000000E+00  0.00000000E+00  0.00000000E+00
  0.00000000E+00  0.00000000E+00  0.00000000E+00
  0.00000000E+00  0.00000000E+00  0.00000000E+00
  0.00000000E+00  0.00000000E+00  0.00000000E+00
  0.00000000E+00  0.00000000E+00  0.00000000E+00
  0.00000000E+00  0.00000000E+00  0.00000000E+00
