MA-Pb-I                                 
   1.00000000000000     
     5.6267413476480952    0.0000416704727542    0.0620815770375229
    -0.0000317550626923    5.5940171136319288    0.0000254647194750
     0.0578866146782483   -0.0000342937909938    5.7648243532177101
   C    N    H    Pb   Cl
     1     1     6     1     3
Direct
  0.5211126033222097  0.5392820197612026  0.3832027989485285
  0.4121591349939384  0.5308904761515001  0.6190812976153438
  0.7163479076580104  0.5330647779468841  0.3957478366041862
  0.4678693453462941  0.7059691073833630  0.2967704229288978
  0.4595356682499504  0.3832960829808406  0.2840170638096905
  0.4642305579833416  0.6770250457813954  0.7205152774443638
  0.4554268100731882  0.3737504927867682  0.7094040579738508
  0.2266941925399879  0.5359524659844600  0.6216676167701310
 -0.0524791305202965  0.0432376634028648 -0.0474929398648588
  0.9466652567703127  0.0458211488456507  0.4558558662379826
  0.9419683932542203  0.5438572050911716 -0.0511205886216394
  0.4513659644650792  0.0411108279464819  0.9446306479393449
 
  0.00000000E+00  0.00000000E+00  0.00000000E+00
  0.00000000E+00  0.00000000E+00  0.00000000E+00
  0.00000000E+00  0.00000000E+00  0.00000000E+00
  0.00000000E+00  0.00000000E+00  0.00000000E+00
  0.00000000E+00  0.00000000E+00  0.00000000E+00
  0.00000000E+00  0.00000000E+00  0.00000000E+00
  0.00000000E+00  0.00000000E+00  0.00000000E+00
  0.00000000E+00  0.00000000E+00  0.00000000E+00
  0.00000000E+00  0.00000000E+00  0.00000000E+00
  0.00000000E+00  0.00000000E+00  0.00000000E+00
  0.00000000E+00  0.00000000E+00  0.00000000E+00
  0.00000000E+00  0.00000000E+00  0.00000000E+00
