MA-Pb-I                                 
   1.00000000000000     
     6.2884187138843197    0.0009579558247489    0.0690993966769832
     0.0005978161223733    6.2287690412624563   -0.0003732067435118
     0.0697053521696059    0.0000445224912706    6.3737103126460282
   C    N    H    Pb   I 
     1     1     6     1     3
Direct
  0.5908707789316301  0.5095833009308157  0.5352688670229665
  0.3970145681099067  0.5247619404490771  0.4078065566022055
  0.5439916878339370  0.4814074231149285  0.7008249792465976
  0.6811307570603343  0.6612500719984348  0.5214788267235507
  0.6897792638846511  0.3743217124281547  0.4775888609327562
  0.2967643705842398  0.6529028912514345  0.4557104199308572
  0.3065658336684928  0.3830824434470860  0.4140731783030768
  0.4325685851966874  0.5548290658051714  0.2502309334966183
  0.0369025741691198 -0.0017164880599549 -0.0115851136666209
  0.0502427975658717  0.0021829432597707  0.4870707306287688
  0.0327224768910890  0.4992086896921404 -0.0183285463863113
  0.5339897434861950 -0.0082993199608592 -0.0008342666387985
 
  0.00000000E+00  0.00000000E+00  0.00000000E+00
  0.00000000E+00  0.00000000E+00  0.00000000E+00
  0.00000000E+00  0.00000000E+00  0.00000000E+00
  0.00000000E+00  0.00000000E+00  0.00000000E+00
  0.00000000E+00  0.00000000E+00  0.00000000E+00
  0.00000000E+00  0.00000000E+00  0.00000000E+00
  0.00000000E+00  0.00000000E+00  0.00000000E+00
  0.00000000E+00  0.00000000E+00  0.00000000E+00
  0.00000000E+00  0.00000000E+00  0.00000000E+00
  0.00000000E+00  0.00000000E+00  0.00000000E+00
  0.00000000E+00  0.00000000E+00  0.00000000E+00
  0.00000000E+00  0.00000000E+00  0.00000000E+00
