MA-Pb-I                                 
   1.0000000000000000     
     5.6267413476480952    0.0000416704727542    0.0620815770375229
    -0.0000317550626923    5.5940171136319288    0.0000254647194750
     0.0578866146782483   -0.0000342937909938    5.7648243532177101
   C    N    H    Pb   Cl
     1     1     6     1     3
Direct
  0.4414269946322436  0.4223056651093393  0.4439527944045841 
  0.6659461738008372  0.4940808210177933  0.5528871364559403 
  0.4176164141345360  0.2366014505523534  0.4812942807688042 
  0.4504324635646951  0.4509566151210250  0.2499959905727843 
  0.2942998626679701  0.5257699585325238  0.5225007058371777 
  0.8110511571387278  0.3998338760369547  0.4823143364565241 
  0.6644425736845125  0.4700813738998741  0.7381988208187241 
  0.7008217541553546  0.6690216679028455  0.5248426873683951 
  0.7923839140915301  0.9979875054988518  0.0793646174902980 
  0.9135858188955126  0.0000223702692494  0.4744099460480626
  0.9004629834686284  0.5000248740275239  0.0232973215355017
  0.4490472465535831  0.0000309138028598  0.9238306684389244

  0.00000000E+00  0.00000000E+00  0.00000000E+00
  0.00000000E+00  0.00000000E+00  0.00000000E+00
  0.00000000E+00  0.00000000E+00  0.00000000E+00
  0.00000000E+00  0.00000000E+00  0.00000000E+00
  0.00000000E+00  0.00000000E+00  0.00000000E+00
  0.00000000E+00  0.00000000E+00  0.00000000E+00
  0.00000000E+00  0.00000000E+00  0.00000000E+00
  0.00000000E+00  0.00000000E+00  0.00000000E+00
  0.00000000E+00  0.00000000E+00  0.00000000E+00
  0.00000000E+00  0.00000000E+00  0.00000000E+00
  0.00000000E+00  0.00000000E+00  0.00000000E+00
  0.00000000E+00  0.00000000E+00  0.00000000E+00
