MA-Pb-I                                 
   1.00000000000000     
     6.2884187138843197    0.0009579558247489    0.0690993966769832
     0.0005978161223733    6.2287690412624563   -0.0003732067435118
     0.0697053521696059    0.0000445224912706    6.3737103126460282
   C    N    H    Pb   I 
     1     1     6     1     3
Direct
  0.4406148037507999  0.4182965573721224  0.5145498364041134
  0.3868586103822377  0.3183910425162610  0.3081111631575198
  0.5703942042217738  0.3262927894131766  0.5903786707678114
  0.2996233375247206  0.4242189826007535  0.6202109022540433
  0.5054005159031286  0.5807161077992915  0.4737980277652842
  0.3297378165843496  0.1610418554825934  0.3168526924813720
  0.5174741726369047  0.3107440827136774  0.2024160835032159
  0.2737362960552989  0.4102721746146387  0.2390724331078270
  0.9039521757467469  0.7529035694181925  0.9036409247967174
  0.9172736233349567  0.2630617428497057  0.9238060542559889
  0.9343290388187931  0.7015184600593038  0.4013822422379978
  0.4133637504763887  0.7786409245791666  0.9213855018478281
 
  0.00000000E+00  0.00000000E+00  0.00000000E+00
  0.00000000E+00  0.00000000E+00  0.00000000E+00
  0.00000000E+00  0.00000000E+00  0.00000000E+00
  0.00000000E+00  0.00000000E+00  0.00000000E+00
  0.00000000E+00  0.00000000E+00  0.00000000E+00
  0.00000000E+00  0.00000000E+00  0.00000000E+00
  0.00000000E+00  0.00000000E+00  0.00000000E+00
  0.00000000E+00  0.00000000E+00  0.00000000E+00
  0.00000000E+00  0.00000000E+00  0.00000000E+00
  0.00000000E+00  0.00000000E+00  0.00000000E+00
  0.00000000E+00  0.00000000E+00  0.00000000E+00
  0.00000000E+00  0.00000000E+00  0.00000000E+00
