MA-Pb-I                                 
   1.0000000000000000     
     6.2884187138843197    0.0009579558247489    0.0690993966769832
     0.0005978161223733    6.2287690412624563   -0.0003732067435118
     0.0697053521696059    0.0000445224912706    6.3737103126460282
   C    N    H    Pb   I 
     1     1     6     1     3
Direct
  0.3336563805006918  0.4392695823567409  0.6336674236767103 
  0.5111364058081602  0.3693555302749987  0.4996383702498820 
  0.3908736179701893  0.5704530280095235  0.7305215728469299 
  0.2821947929375241  0.3054354154984728  0.7363372007151804 
  0.2008302845064614  0.4927421564168717  0.5307831403383489 
  0.6415646230561726  0.3162747414435498  0.5909570788938212 
  0.5652594814150546  0.4917964652303321  0.3983355404927258 
  0.4684908289373756  0.2446507692035917  0.4029251103714929 
  0.8576508256363113  0.7161856081515379  0.4711497719220010 
  0.9094873486598019  0.9999820990246278  0.4751454839169895
  0.8992708791277906  0.4999580210910821  0.0236644354684188
  0.4323428768805755  0.9999948727175436  0.9224794036872126

  0.00000000E+00  0.00000000E+00  0.00000000E+00
  0.00000000E+00  0.00000000E+00  0.00000000E+00
  0.00000000E+00  0.00000000E+00  0.00000000E+00
  0.00000000E+00  0.00000000E+00  0.00000000E+00
  0.00000000E+00  0.00000000E+00  0.00000000E+00
  0.00000000E+00  0.00000000E+00  0.00000000E+00
  0.00000000E+00  0.00000000E+00  0.00000000E+00
  0.00000000E+00  0.00000000E+00  0.00000000E+00
  0.00000000E+00  0.00000000E+00  0.00000000E+00
  0.00000000E+00  0.00000000E+00  0.00000000E+00
  0.00000000E+00  0.00000000E+00  0.00000000E+00
  0.00000000E+00  0.00000000E+00  0.00000000E+00
