MA-Pb-I                                 
   1.0000000000000000     
     6.2884187138843197    0.0009579558247489    0.0690993966769832
     0.0005978161223733    6.2287690412624563   -0.0003732067435118
     0.0697053521696059    0.0000445224912706    6.3737103126460282
   C    N    H    Pb   I 
     1     1     6     1     3
Direct
  0.3684166664112670  0.5604255654499580  0.6499093777085423 
  0.4110575097896601  0.4048282097110776  0.4816175401549421 
  0.2060557923458004  0.5351567618321182  0.7034263752409652 
  0.3865376313945571  0.7231805814787593  0.5844617061240120 
  0.4812633969453513  0.5344534005301326  0.7828692429644837 
  0.3074747921220383  0.4238248446790668  0.3509349284334780 
  0.3962706349587473  0.2470037898214434  0.5369000328802939 
  0.5629126219370600  0.4193090651626861  0.4228492916110749 
  0.5827364339343110  0.5088946684019822  0.7694298473868313 
  0.9094873486598019  0.9999820990246278  0.4751454839169895
  0.8992708791277906  0.4999580210910821  0.0236644354684188
  0.4323428768805755  0.9999948727175436  0.9224794036872126

  0.00000000E+00  0.00000000E+00  0.00000000E+00
  0.00000000E+00  0.00000000E+00  0.00000000E+00
  0.00000000E+00  0.00000000E+00  0.00000000E+00
  0.00000000E+00  0.00000000E+00  0.00000000E+00
  0.00000000E+00  0.00000000E+00  0.00000000E+00
  0.00000000E+00  0.00000000E+00  0.00000000E+00
  0.00000000E+00  0.00000000E+00  0.00000000E+00
  0.00000000E+00  0.00000000E+00  0.00000000E+00
  0.00000000E+00  0.00000000E+00  0.00000000E+00
  0.00000000E+00  0.00000000E+00  0.00000000E+00
  0.00000000E+00  0.00000000E+00  0.00000000E+00
  0.00000000E+00  0.00000000E+00  0.00000000E+00
