MA-Pb-I                                 
   1.00000000000000     
     5.8892445321787328   -0.0048008041779134    0.0656571269169357
    -0.0053334077729528    5.8544884580747532    0.0012821621476484
     0.0639774282558244    0.0006908469467942    6.0230320529523143
   C    N    H    Pb   Br
     1     1     6     1     3
Direct
 -0.0577935143340081 -0.0666520897549930  0.1720444016928981
  0.1368463389793254  0.0259163971188404  0.1290264222507899
  0.8528908296365056 -0.0287202683850096  0.3308605693262825
  0.8716663907106126  0.8158964506674882  0.0482357980892330
  0.0326453423905150  0.9692617919093084  0.6471027792510619
  0.9475841180788762  0.0831071687283045  0.6679190021764617
  0.2113222130845140  0.1477847568984622  0.2310767189864593
  0.2194500017941761  0.0003913907548438 -0.0239257822240885
  0.4895685701861140  0.5063982709827998  0.6596527106330718
  0.4755181235394285  0.4900958148177909  0.1579742904600709
  0.4919388845511577  0.0089181184174931  0.6572070635521832
 -0.0103731423379362  0.5178684987227585  0.6585654370433932
 
  0.00000000E+00  0.00000000E+00  0.00000000E+00
  0.00000000E+00  0.00000000E+00  0.00000000E+00
  0.00000000E+00  0.00000000E+00  0.00000000E+00
  0.00000000E+00  0.00000000E+00  0.00000000E+00
  0.00000000E+00  0.00000000E+00  0.00000000E+00
  0.00000000E+00  0.00000000E+00  0.00000000E+00
  0.00000000E+00  0.00000000E+00  0.00000000E+00
  0.00000000E+00  0.00000000E+00  0.00000000E+00
  0.00000000E+00  0.00000000E+00  0.00000000E+00
  0.00000000E+00  0.00000000E+00  0.00000000E+00
  0.00000000E+00  0.00000000E+00  0.00000000E+00
  0.00000000E+00  0.00000000E+00  0.00000000E+00
