MA-Pb-I                                 
   1.00000000000000     
     5.6267413476480952    0.0000416704727542    0.0620815770375229
    -0.0000317550626923    5.5940171136319288    0.0000254647194750
     0.0578866146782483   -0.0000342937909938    5.7648243532177101
   C    N    H    Pb   Cl
     1     1     6     1     3
Direct
  0.5830253464903875  0.4210502039566537  0.4977490113804243
  0.3828965737793880  0.5850607040624627  0.5566695012933952
  0.6611804663907507  0.4722993727622583  0.3277990971340379
  0.5147651587066463  0.2355606873079277  0.4902159836615839
  0.7179628669879495  0.4356416852484222  0.6329013028451159
  0.2609427221482528  0.5986891693614202  0.4235912541457334
  0.4401571765928097  0.7591079619279337  0.5888800427888694
  0.2852433994078419  0.5341751197546222  0.7077241821917675
  0.0115078996124820  0.0302456209195255  0.0013017666542538
  0.0135871172735925  0.0311675648690991  0.5024480738001013
  0.0179692159885963  0.5301064829088485  0.0032858155333399
  0.5087206922817821  0.0281999436185667  0.9951583759316533
 
  0.00000000E+00  0.00000000E+00  0.00000000E+00
  0.00000000E+00  0.00000000E+00  0.00000000E+00
  0.00000000E+00  0.00000000E+00  0.00000000E+00
  0.00000000E+00  0.00000000E+00  0.00000000E+00
  0.00000000E+00  0.00000000E+00  0.00000000E+00
  0.00000000E+00  0.00000000E+00  0.00000000E+00
  0.00000000E+00  0.00000000E+00  0.00000000E+00
  0.00000000E+00  0.00000000E+00  0.00000000E+00
  0.00000000E+00  0.00000000E+00  0.00000000E+00
  0.00000000E+00  0.00000000E+00  0.00000000E+00
  0.00000000E+00  0.00000000E+00  0.00000000E+00
  0.00000000E+00  0.00000000E+00  0.00000000E+00
