MA-Pb-I                                 
   1.00000000000000     
     5.8892445321787328   -0.0048008041779134    0.0656571269169357
    -0.0053334077729528    5.8544884580747532    0.0012821621476484
     0.0639774282558244    0.0006908469467942    6.0230320529523143
   C    N    H    Pb   Br
     1     1     6     1     3
Direct
 -0.1342947002652417  0.3333711222193075  0.5438187180753365
  0.6106012633397798  0.7951463257721759  0.7775509732591311
 -0.0554207868476891  0.1647020753232468  0.5241856577866884
 -0.0666486320106908  0.4288379595483605  0.6880736953721319
  0.9683354752395735  0.9623248447419998  0.2160891292952262
  0.9866594225197054  0.0899156133795619  0.1811163749665433
  0.7733722378228680  0.7684405228074844  0.7118782305784099
  0.5632941386582062  0.6462331723345043  0.8640548715674315
  0.4424955663022463  0.2930444937745756  0.5377113046941961
  0.4462336029502451  0.3018974484236154  0.0334895831269760
  0.4236226311187623  0.7896461236803706  0.5248417797010315
  0.9478360777844499  0.5142468020145223  0.2750699307335650
 
  0.00000000E+00  0.00000000E+00  0.00000000E+00
  0.00000000E+00  0.00000000E+00  0.00000000E+00
  0.00000000E+00  0.00000000E+00  0.00000000E+00
  0.00000000E+00  0.00000000E+00  0.00000000E+00
  0.00000000E+00  0.00000000E+00  0.00000000E+00
  0.00000000E+00  0.00000000E+00  0.00000000E+00
  0.00000000E+00  0.00000000E+00  0.00000000E+00
  0.00000000E+00  0.00000000E+00  0.00000000E+00
  0.00000000E+00  0.00000000E+00  0.00000000E+00
  0.00000000E+00  0.00000000E+00  0.00000000E+00
  0.00000000E+00  0.00000000E+00  0.00000000E+00
  0.00000000E+00  0.00000000E+00  0.00000000E+00
