MA-Pb-I                                 
   1.00000000000000     
     5.8892445321787328   -0.0048008041779134    0.0656571269169357
    -0.0053334077729528    5.8544884580747532    0.0012821621476484
     0.0639774282558244    0.0006908469467942    6.0230320529523143
   C    N    H    Pb   Br
     1     1     6     1     3
Direct
  0.0542673507208092  0.1519496553727873  0.6594251120945085 
  0.4992197214755774  0.6119560974717344  0.6988138384980334 
  0.2135541692328764  0.1619508225232833  0.5702380010009445 
  0.1240054193430149  0.4695087534488592  0.5769916760143081 
  0.8638885067923405  0.9697336015912423  0.1765415536413807 
  0.8983178872658616  0.0584115745361353  0.2243176796611520 
  0.6314289308549208  0.5722461881615193  0.8119855176484383 
  0.3535847714205534  0.6114945159645204  0.7920909563799547 
  0.4567066387233801  0.4852112858071302  0.4241637062977497 
  0.4352272726238539  0.4972012503325617  0.9832769846011953
  0.4159970891092727  0.9985715009710078  0.5336351900357424
  0.9598885390497535  0.4995712578389358  0.4264000332832606
 
  0.00000000E+00  0.00000000E+00  0.00000000E+00
  0.00000000E+00  0.00000000E+00  0.00000000E+00
  0.00000000E+00  0.00000000E+00  0.00000000E+00
  0.00000000E+00  0.00000000E+00  0.00000000E+00
  0.00000000E+00  0.00000000E+00  0.00000000E+00
  0.00000000E+00  0.00000000E+00  0.00000000E+00
  0.00000000E+00  0.00000000E+00  0.00000000E+00
  0.00000000E+00  0.00000000E+00  0.00000000E+00
  0.00000000E+00  0.00000000E+00  0.00000000E+00
  0.00000000E+00  0.00000000E+00  0.00000000E+00
  0.00000000E+00  0.00000000E+00  0.00000000E+00
  0.00000000E+00  0.00000000E+00  0.00000000E+00
