MA-Pb-I                                 
   1.00000000000000     
     5.8857348584972646   -0.0000116429338373    0.0677019167604032
    -0.0000113721705701    5.8535748976198549   -0.0000048572736550
     0.0678468051824150   -0.0000044748208102    6.0066012361495211
   C    N    H    Pb   Br
     1     1     6     1     3
Direct
  0.1266452216507514  0.5847285481548973 -0.0157158562645054
  0.1767421767015447  0.3058529010693439  0.5299847705750197
  0.0867515995002822  0.0395327838981191  0.1258522661617612
  0.9873968605123526  0.5138991714875039  0.8843402887668136
  0.0115384137917845  0.1505891101115525  0.1217555564584300
  0.2960593121977699  0.6303290273902010  0.9197419074198412
  0.1352232300254627  0.1455870135013392  0.4747599229657301
  0.1135006093890722  0.3204177159391010  0.6923131139465338
  0.5920435440868953  0.2923167541739070  0.5425095392281652
  0.5985207300007105  0.2866311687856741  0.0444999046787140
  0.6021386345749323  0.7914659010340426  0.5472882974329938
  0.0615318596295354  0.6005273783428137  0.2702365889729526
 
  0.00000000E+00  0.00000000E+00  0.00000000E+00
  0.00000000E+00  0.00000000E+00  0.00000000E+00
  0.00000000E+00  0.00000000E+00  0.00000000E+00
  0.00000000E+00  0.00000000E+00  0.00000000E+00
  0.00000000E+00  0.00000000E+00  0.00000000E+00
  0.00000000E+00  0.00000000E+00  0.00000000E+00
  0.00000000E+00  0.00000000E+00  0.00000000E+00
  0.00000000E+00  0.00000000E+00  0.00000000E+00
  0.00000000E+00  0.00000000E+00  0.00000000E+00
  0.00000000E+00  0.00000000E+00  0.00000000E+00
  0.00000000E+00  0.00000000E+00  0.00000000E+00
  0.00000000E+00  0.00000000E+00  0.00000000E+00
