MA-Pb-I                                 
   1.00000000000000     
     5.8857348584972646   -0.0000116429338373    0.0677019167604032
    -0.0000113721705701    5.8535748976198549   -0.0000048572736550
     0.0678468051824150   -0.0000044748208102    6.0066012361495211
   C    N    H    Pb   Br
     1     1     6     1     3
Direct
  0.6949233827826007  0.7466535705323141  0.5816444477601307
  0.8030110397410115  0.6478728711448635  0.7664476443191885
  0.6053559452467934  0.9138837859822744  0.6145156478277706
  0.7985502602879992  0.7512169474392235  0.4273119552787281
  0.0647593086843882  0.3238541518909008  0.1492821128736611
  0.4436063853327684  0.0371108814097071  0.4942186731852267
  0.6880659387006498  0.6154134353702793  0.8945949222809070
  0.9509396049724673  0.7156537098489976  0.8202816236218329
  0.4334685035459182  0.4301046407094304  0.4777654121005773
  0.3650520278664634  0.3834820439114987 -0.0327400506431254
  0.2068373073374275 -0.1006933960633555  0.4559457003556909
 -0.0741518814932330  0.3510605135522585  0.3668511599280326
 
  0.00000000E+00  0.00000000E+00  0.00000000E+00
  0.00000000E+00  0.00000000E+00  0.00000000E+00
  0.00000000E+00  0.00000000E+00  0.00000000E+00
  0.00000000E+00  0.00000000E+00  0.00000000E+00
  0.00000000E+00  0.00000000E+00  0.00000000E+00
  0.00000000E+00  0.00000000E+00  0.00000000E+00
  0.00000000E+00  0.00000000E+00  0.00000000E+00
  0.00000000E+00  0.00000000E+00  0.00000000E+00
  0.00000000E+00  0.00000000E+00  0.00000000E+00
  0.00000000E+00  0.00000000E+00  0.00000000E+00
  0.00000000E+00  0.00000000E+00  0.00000000E+00
  0.00000000E+00  0.00000000E+00  0.00000000E+00
